Ir(100)-2x1_O
  2.7116
    2.0000000000000000    0.0000000000000000    0.0000000000000000
    0.0000000000000000    1.0000000000000000    0.0000000000000000
    0.0000000000000000    0.0000000000000000    7.0710678000000000
    O   Ir
    1   14
Direct  
  0.0000  0.0000  0.7600 
  0.7500  0.0000  0.7000 
  0.2500  0.0000  0.7000 
  0.0000  0.5000  0.6000 
  0.5000  0.5000  0.6000 
  0.7500  0.0000  0.5000 
  0.2500  0.0000  0.5000 
  0.0000  0.5000  0.4000 
  0.5000  0.5000  0.4000 
  0.7500  0.0000  0.3000 
  0.2500  0.0000  0.3000 
  0.0000  0.5000  0.2000 
  0.5000  0.5000  0.2000 
  0.2500  0.0000  0.1000 
  0.7500  0.0000  0.1000 
