C1		
1.0
        8.7446756363         0.0000000000         0.0000000000
        0.0000000000         5.0487418175         0.0000000000
        0.0000027725         0.0000000000        20.8209819794
    C
   96
Direct
     0.000000000         0.000000000         0.000000000
     0.000000000         0.500000000         0.000000000
     0.250000298         0.250000000         0.000000000
     0.750000000         0.250000000         0.000000000
     0.499999613         0.500000000         0.000000000
     0.499999613         0.000000000         0.000000000
     0.750000000         0.750000000         0.000000000
     0.250000298         0.750000000         0.000000000
     0.833333015         0.500000000         0.024748251
     0.083333313         0.250000000         0.024748363
     0.083333313         0.750000000         0.024748363
     0.333333313         0.500000000         0.024748363
     0.333333313         0.000000000         0.024748363
     0.583333671         0.750000000         0.024748471
     0.583333671         0.250000000         0.024748471
     0.833333015         0.000000000         0.024748251
     0.333333313         0.000000000         0.098993398
     0.333333313         0.500000000         0.098993398
     0.583333671         0.250000000         0.098993517
     0.083333321         0.250000000         0.098993413
     0.833333075         0.500000000         0.098993301
     0.833333075         0.000000000         0.098993301
     0.083333321         0.750000000         0.098993413
     0.583333671         0.750000000         0.098993517
     0.166666329         0.500000000         0.123741649
     0.416666627         0.250000000         0.123741768
     0.416666627         0.750000000         0.123741768
     0.666666627         0.500000000         0.123741768
     0.666666627         0.000000000         0.123741768
     0.916666865         0.750000000         0.123741843
     0.916666865         0.250000000         0.123741843
     0.166666329         0.000000000         0.123741649
     0.666666627         0.000000000         0.197986796
     0.666666627         0.500000000         0.197986796
     0.916666985         0.250000000         0.197986901
     0.416666627         0.250000000         0.197986796
     0.166666329         0.500000000         0.197986692
     0.166666329         0.000000000         0.197986692
     0.416666627         0.750000000         0.197986796
     0.916666985         0.750000000         0.197986901
     0.499999613         0.500000000         0.222735092
     0.750000000         0.250000000         0.222735152
     0.750000000         0.750000000         0.222735152
     0.000000000         0.500000000         0.222735152
     0.000000000         0.000000000         0.222735152
     0.250000298         0.750000000         0.222735241
     0.250000298         0.250000000         0.222735241
     0.499999613         0.000000000         0.222735092
     0.000000000         0.000000000         0.296980202
     0.000000000         0.500000000         0.296980202
     0.250000298         0.250000000         0.296980202
     0.750000060         0.250000000         0.296980202
     0.499999642         0.500000000         0.296980202
     0.499999642         0.000000000         0.296980202
     0.750000060         0.750000000         0.296980202
     0.250000298         0.750000000         0.296980202
     0.833333075         0.500000000         0.321728438
     0.083333313         0.250000000         0.321728557
     0.083333313         0.750000000         0.321728557
     0.333333313         0.500000000         0.321728557
     0.333333313         0.000000000         0.321728557
     0.583333671         0.750000000         0.321728647
     0.583333671         0.250000000         0.321728647
     0.833333075         0.000000000         0.321728438
     0.333333313         0.000000000         0.395973593
     0.333333313         0.500000000         0.395973593
     0.583333671         0.250000000         0.395973682
     0.083333313         0.250000000         0.395973593
     0.833333015         0.500000000         0.395973504
     0.833333015         0.000000000         0.395973504
     0.083333313         0.750000000         0.395973593
     0.583333671         0.750000000         0.395973682
     0.166666329         0.500000000         0.420721829
     0.416666627         0.250000000         0.420721948
     0.416666627         0.750000000         0.420721948
     0.666666627         0.500000000         0.420721948
     0.666666627         0.000000000         0.420721948
     0.916666925         0.750000000         0.420722038
     0.916666925         0.250000000         0.420722038
     0.166666329         0.000000000         0.420721829
     0.666666627         0.000000000         0.494966984
     0.666666627         0.500000000         0.494966984
     0.916666865         0.250000000         0.494967103
     0.416666627         0.250000000         0.494967014
     0.166666344         0.500000000         0.494966894
     0.166666344         0.000000000         0.494966894
     0.416666627         0.750000000         0.494967014
     0.916666865         0.750000000         0.494967103
     0.499999613         0.500000000         0.519715250
     0.750000000         0.250000000         0.519715369
     0.750000000         0.750000000         0.519715369
     0.000000000         0.500000000         0.519715369
     0.000000000         0.000000000         0.519715369
     0.250000298         0.750000000         0.519715428
     0.250000298         0.250000000         0.519715428
     0.499999613         0.000000000         0.519715250
