C1		
1.0
        8.7446756363         0.0000000000         0.0000000000
        0.0000000000         5.0487418175         0.0000000000
        0.0000000000         0.0000000000        20.8209819794
    C
   96
Direct
     0.000000000         0.000000000         0.000000000
     0.000000000         0.500000000         0.000000000
     0.250000000         0.250000000         0.000000000
     0.750000000         0.250000000         0.000000000
     0.500000000         0.500000000         0.000000000
     0.500000000         0.000000000         0.000000000
     0.750000000         0.750000000         0.000000000
     0.250000000         0.750000000         0.000000000
     0.833333333         0.500000000         0.024748363
     0.083333333         0.250000000         0.024748363
     0.083333333         0.750000000         0.024748363
     0.333333333         0.500000000         0.024748363
     0.333333333         0.000000000         0.024748363
     0.583333333         0.750000000         0.024748363
     0.583333333         0.250000000         0.024748363
     0.833333333         0.000000000         0.024748363
     0.333333333         0.000000000         0.098993333
     0.333333333         0.500000000         0.098993333
     0.583333333         0.250000000         0.098993333
     0.083333333         0.250000000         0.098993333
     0.833333333         0.500000000         0.098993333
     0.833333333         0.000000000         0.098993333
     0.083333333         0.750000000         0.098993333
     0.583333333         0.750000000         0.098993333
     0.166666666         0.500000000         0.123741768
     0.416666666         0.250000000         0.123741768
     0.416666666         0.750000000         0.123741768
     0.666666666         0.500000000         0.123741768
     0.666666666         0.000000000         0.123741768
     0.916666666         0.750000000         0.123741768
     0.916666666         0.250000000         0.123741768
     0.166666666         0.000000000         0.123741768
     0.666666666         0.000000000         0.197986796
     0.666666666         0.500000000         0.197986796
     0.916666666         0.250000000         0.197986796
     0.416666666         0.250000000         0.197986796
     0.166666666         0.500000000         0.197986796
     0.166666666         0.000000000         0.197986796
     0.416666666         0.750000000         0.197986796
     0.916666666         0.750000000         0.197986796
     0.500000000         0.500000000         0.222735152
     0.750000000         0.250000000         0.222735152
     0.750000000         0.750000000         0.222735152
     0.000000000         0.500000000         0.222735152
     0.000000000         0.000000000         0.222735152
     0.250000000         0.750000000         0.222735152
     0.250000000         0.250000000         0.222735152
     0.500000000         0.000000000         0.222735152
     0.000000000         0.000000000         0.296980202
     0.000000000         0.500000000         0.296980202
     0.250000000         0.250000000         0.296980202
     0.750000000         0.250000000         0.296980202
     0.500000000         0.500000000         0.296980202
     0.500000000         0.000000000         0.296980202
     0.750000000         0.750000000         0.296980202
     0.250000000         0.750000000         0.296980202
     0.833333333         0.500000000         0.321728557
     0.083333333         0.250000000         0.321728557
     0.083333333         0.750000000         0.321728557
     0.333333333         0.500000000         0.321728557
     0.333333333         0.000000000         0.321728557
     0.583333333         0.750000000         0.321728557
     0.583333333         0.250000000         0.321728557
     0.833333333         0.000000000         0.321728557
     0.333333333         0.000000000         0.395973593
     0.333333333         0.500000000         0.395973593
     0.583333333         0.250000000         0.395973593
     0.083333333         0.250000000         0.395973593
     0.833333333         0.500000000         0.395973593
     0.833333333         0.000000000         0.395973593
     0.083333333         0.750000000         0.395973593
     0.583333333         0.750000000         0.395973593
     0.166666666         0.500000000         0.420721948
     0.416666666         0.250000000         0.420721948
     0.416666666         0.750000000         0.420721948
     0.666666666         0.500000000         0.420721948
     0.666666666         0.000000000         0.420721948
     0.916666666         0.750000000         0.420722948
     0.916666666         0.250000000         0.420722948
     0.166666666         0.000000000         0.420721948
     0.666666666         0.000000000         0.494966014
     0.666666666         0.500000000         0.494966014
     0.916666666         0.250000000         0.494967014
     0.416666666         0.250000000         0.494967014
     0.166666666         0.500000000         0.494966014
     0.166666666         0.000000000         0.494966014
     0.416666666         0.750000000         0.494967014
     0.916666666         0.750000000         0.494967014
     0.500000000         0.500000000         0.519715369
     0.750000000         0.250000000         0.519715369
     0.750000000         0.750000000         0.519715369
     0.000000000         0.500000000         0.519715369
     0.000000000         0.000000000         0.519715369
     0.250000000         0.750000000         0.519715369
     0.250000000         0.250000000         0.519715369
     0.500000000         0.000000000         0.519715369
