Fe2O3
  1.000000
    5.0354990958999997    0.0000000000000000    0.0000000000000000
    0.0000000000000000    5.4267997742000000    0.0000000000000000
    0.0000000000000000   -3.0175643747000001   29.4583313627999992
   Fe    O
   16   24
Direct          Plane group = pg[0 1]                           N   SiteLabel  Layer  Linking     FreeDir
  0.7500010135000000  0.2902304975000008  0.0887224970000000    1      Fe_def      4        1        bulk
  0.7500010135000000  0.2902304975000001  0.3387224975000000    2      Fe_def      2        2        free
  0.2500000000000001  0.7902305125000002  0.2137225045000000    3      Fe_def      3        3        free
  0.2500000000000001  0.7902305125000000  0.4637224975000000    4     Fe_surf      1        4        free
  0.7499995005000001  0.7097725125000001  0.1612794995000000    5      Fe_def      3        5        free
  0.7499995005000001  0.7097725125000003  0.4112794995000000    6      Fe_def      1        6        free
  0.2499985100000002  0.2097724825000002  0.0362794995000000    7      Fe_def      4        7        bulk
  0.2499985100000002  0.2097724825000002  0.2862794995000000    8      Fe_def      2        8        free
  0.7499999999999999  0.2902305125000001  0.2137225045000000    9      Fe_def      3        3        free
  0.7499999999999999  0.2902305125000000  0.4637224975000000   10     Fe_surf      1        4        free
  0.2499989864999999  0.7902304975000010  0.0887224970000000   11      Fe_def      4        1        bulk
  0.2499989864999999  0.7902304975000002  0.3387224975000000   12      Fe_def      2        2        free
  0.7500014899999998  0.7097724825000002  0.0362794995000000   13      Fe_def      4        7        bulk
  0.7500014899999998  0.7097724825000002  0.2862794995000000   14      Fe_def      2        8        free
  0.2500004995000000  0.2097725125000001  0.1612794995000000   15      Fe_def      3        5        free
  0.2500004995000000  0.2097725125000003  0.4112794995000000   16      Fe_def      1        6        free
  0.9027014969999999  0.6527029869999998  0.2256760000000000   17       O_def      3        9        free
  0.9027014969999999  0.6527029870000001  0.4756760000000000   18      O_surf      1       10        free
  0.4027015120000000  0.1527030020000000  0.1006769980000000   19       O_def      4       11        bulk
  0.4027015120000000  0.1527030020000000  0.3506770130000000   20       O_def      2       12        free
  0.4445970054999999  0.5000020135000007  0.1875009980000000   21       O_def      3       13        free
  0.4445970055000001  0.5000020135000003  0.4375010130000000   22       O_def      1       14        free
  0.9445969999999999  0.0000020134999999  0.0625009980000000   23       O_def      4       15        bulk
  0.9445969999999999  0.0000020135000001  0.3125010130000000   24       O_def      2       16        free
  0.9027015119999999  0.3473000080000000  0.1493259970000000   25       O_def      3       17        free
  0.9027015119999999  0.3473000079999999  0.3993250130000002   26       O_def      1       18        free
  0.4027014970000000  0.8472999930000000  0.0243260000000000   27       O_def      4       19        bulk
  0.4027014970000000  0.8472999929999999  0.2743259970000000   28       O_def      2       20        free
  0.0972984880000000  0.8473000080000002  0.1493259970000000   29       O_def      3       17        free
  0.0972984880000000  0.8473000080000000  0.3993250130000002   30       O_def      1       18        free
  0.5972985030000000  0.3472999929999999  0.0243260000000000   31       O_def      4       19        bulk
  0.5972985030000000  0.3472999930000000  0.2743259970000000   32       O_def      2       20        free
  0.5554029945000001  0.0000020135000007  0.1875009980000000   33       O_def      3       13        free
  0.5554029944999999  0.0000020135000003  0.4375010130000000   34       O_def      1       14        free
  0.0554030000000000  0.5000020134999998  0.0625009980000000   35       O_def      4       15        bulk
  0.0554030000000000  0.5000020135000001  0.3125010130000000   36       O_def      2       16        free
  0.0972985030000001  0.1527029869999999  0.2256760000000000   37       O_def      3        9        free
  0.0972985030000001  0.1527029870000001  0.4756760000000000   38      O_surf      1       10        free
  0.5972984880000000  0.6527030020000000  0.1006769980000000   39       O_def      4       11        bulk
  0.5972984880000000  0.6527030019999999  0.3506770130000000   40       O_def      2       12        free
