rutile-9x2-ideal with CO                
   1.00000000000000     
    26.7120990752999994    0.0000000000000000    0.0000000000000000
     0.0000000000000000   13.1824998856000004    0.0000000000000000
     0.0000000000000000    0.0000000000000000   30.7556991577000005
   Ti   O 
   180   360
Selective dynamics
Direct
  0.0000000000000000  0.0000000000000000  0.0418299999999974   F   F   F
  0.0000000000000000  0.2500000000000000  0.1489900050000017   F   F   F
  0.9999999503939279  0.9999976231881931  0.2565133300674134   T   T   T
  0.9999997793418558  0.2499957190404416  0.3705747892990345   T   T   T
  0.9999999432488025  0.0000004984584407  0.4704209632948562   T   T   T
  0.0555599999999998  0.2500000000000000  0.0418299999999974   F   F   F
  0.0555599999999998  0.0000000000000000  0.1489900050000017   F   F   F
  0.0555592504325801  0.2499848142698724  0.2590848880143284   T   T   T
  0.0555497877072355  0.9999999095020158  0.3642782617852731   T   T   T
  0.0555772651990409  0.2499974619729173  0.4814168946542665   T   T   T
  0.1111100019999967  0.0000000000000000  0.0418299999999974   F   F   F
  0.1111100019999967  0.2500000000000000  0.1489900050000017   F   F   F
  0.1111247703267040  0.9999987567781261  0.2565216333701557   T   T   T
  0.1111023387750265  0.2500029833208046  0.3705621142623201   T   T   T
  0.1111087974832969  0.0000006355521407  0.4704448649818858   T   T   T
  0.1666699949999995  0.2500000000000000  0.0418299999999974   F   F   F
  0.1666699949999995  0.0000000000000000  0.1489900050000017   F   F   F
  0.1666874035224382  0.2499975375809100  0.2590919690820783   T   T   T
  0.1666997096494498  0.0000004991253775  0.3643093683715364   T   T   T
  0.1667448750024008  0.2499750730901127  0.4813849895054361   T   T   T
  0.2222200040000004  0.0000000000000000  0.0418299999999974   F   F   F
  0.2222200040000004  0.2500000000000000  0.1489900050000017   F   F   F
  0.2222578613196902  0.0000001779935701  0.2565086948886020   T   T   T
  0.2222123614912803  0.2500093507543895  0.3705282638374712   T   T   T
  0.2222314681479318  0.0000005563321963  0.4704619656406166   T   T   T
  0.2777799959999996  0.2500000000000000  0.0418299999999974   F   F   F
  0.2777799959999996  0.0000000000000000  0.1489900050000017   F   F   F
  0.2778212588982072  0.2500012944322805  0.2590735892422273   T   T   T
  0.2778147832450486  0.0000003483011497  0.3643005351971098   T   T   T
  0.2778487156609941  0.2500017000990269  0.4813848595835566   T   T   T
  0.3333300050000005  0.0000000000000000  0.0418299999999974   F   F   F
  0.3333300050000005  0.2500000000000000  0.1489900050000017   F   F   F
  0.3333606485405056  0.0000001807475982  0.2565191254165029   T   T   T
  0.3333258543855138  0.2500052777277020  0.3705505787573813   T   T   T
  0.3333414163320683  0.0000000964815925  0.4704840508385146   T   T   T
  0.3888899980000033  0.2500000000000000  0.0418299999999974   F   F   F
  0.3888899980000033  0.0000000000000000  0.1489900050000017   F   F   F
  0.3889214807994250  0.2500009044118841  0.2590982023796471   T   T   T
  0.3889149570110391  0.0000000726185263  0.3643489213333311   T   T   T
  0.3889264967833483  0.2500041810207208  0.4814243132993923   T   T   T
  0.4444400069999972  0.0000000000000000  0.0418299999999974   F   F   F
  0.4444400069999972  0.2500000000000000  0.1489900050000017   F   F   F
  0.4444526964175424  0.9999999633001906  0.2565246636309340   T   T   T
  0.4444467527484477  0.2500078115436466  0.3705784695880112   T   T   T
  0.4444520868858604  0.0000000440323831  0.4705007953030389   T   T   T
  0.5000000000000000  0.2500000000000000  0.0418299999999974   F   F   F
  0.5000000000000000  0.0000000000000000  0.1489900050000017   F   F   F
  0.4999999930137662  0.2500013987959022  0.2590989894821476   T   T   T
  0.5000000005113563  0.0000000472980091  0.3642987141715608   T   T   T
  0.4999999216061894  0.2500063525615346  0.4814229347870551   T   T   T
  0.5555599930000028  0.0000000000000000  0.0418299999999974   F   F   F
  0.5555599930000028  0.2500000000000000  0.1489900050000017   F   F   F
  0.5555473323884996  0.9999999683538405  0.2565246683351248   T   T   T
  0.5555532971918069  0.2500078558050873  0.3705784440576778   T   T   T
  0.5555478478129672  0.0000000537073532  0.4705007830951757   T   T   T
  0.6111099720000013  0.2500000000000000  0.0418299999999974   F   F   F
  0.6111099720000013  0.0000000000000000  0.1489900050000017   F   F   F
  0.6110785381603705  0.2500008953988555  0.2590981925652969   T   T   T
  0.6110850486628721  0.0000000552660637  0.3643489023297946   T   T   T
  0.6110734021607271  0.2500042109365452  0.4814242824771071   T   T   T
  0.6666700239999983  0.0000000000000000  0.0418299999999974   F   F   F
  0.6666700239999983  0.2500000000000000  0.1489900050000017   F   F   F
  0.6666393924378085  0.0000001654447672  0.2565191141426411   T   T   T
  0.6666742460965978  0.2500051073907201  0.3705505759012695   T   T   T
  0.6666585862453047  0.0000001580861806  0.4704840225910161   T   T   T
  0.7222200040000004  0.2500000000000000  0.0418299999999974   F   F   F
  0.7222200040000004  0.0000000000000000  0.1489900050000017   F   F   F
  0.7221788233272690  0.2500011977281389  0.2590736907698883   T   T   T
  0.7221852532939224  0.9999999931756633  0.3643004958197267   T   T   T
  0.7221511332627202  0.2500016829767944  0.4813849104605410   T   T   T
  0.7777799959999996  0.0000000000000000  0.0418299999999974   F   F   F
  0.7777799959999996  0.2500000000000000  0.1489900050000017   F   F   F
  0.7777422028550376  0.0000002123763849  0.2565087252029485   T   T   T
  0.7777875336231688  0.2500087547005236  0.3705282478728193   T   T   T
  0.7777685309674638  0.0000000922184569  0.4704619466392543   T   T   T
  0.8333299760000017  0.2500000000000000  0.0418299999999974   F   F   F
  0.8333299760000017  0.0000000000000000  0.1489900050000017   F   F   F
  0.8333128966633154  0.2499973893647152  0.2590921993593724   T   T   T
  0.8333003705836859  0.0000000751018447  0.3643093812689528   T   T   T
  0.8332545300602376  0.2499748207257255  0.4813852904332734   T   T   T
  0.8888900279999987  0.0000000000000000  0.0418299999999974   F   F   F
  0.8888900279999987  0.2500000000000000  0.1489900050000017   F   F   F
  0.8888752197305934  0.9999988115819036  0.2565216649523876   T   T   T
  0.8888974193352155  0.2500035828215843  0.3705636654258839   T   T   T
  0.8888911579624761  0.0000001189677405  0.4704448474329297   T   T   T
  0.9444400069999972  0.2500000000000000  0.0418299999999974   F   F   F
  0.9444400069999972  0.0000000000000000  0.1489900050000017   F   F   F
  0.9444403449615919  0.2499847261370860  0.2590850762118819   T   T   T
  0.9444501387084117  0.0000002041414291  0.3642782243526312   T   T   T
  0.9444226545804000  0.2499972347408814  0.4814167260282289   T   T   T
  0.0000000000000000  0.5000000000000000  0.0418299999999974   F   F   F
  0.0000000000000000  0.7500000000000000  0.1489900050000017   F   F   F
  0.9999999643514883  0.4999976950573810  0.2565547199509552   T   T   T
  0.0000000043969877  0.7500048923480733  0.3705750006954531   T   T   T
  0.9999999515201807  0.5000002818551010  0.4705677714095486   T   T   T
  0.0555599999999998  0.7500000000000000  0.0418299999999974   F   F   F
  0.0555599999999998  0.5000000000000000  0.1489900050000017   F   F   F
  0.0555595178637418  0.7500114256527084  0.2590851705286497   T   T   T
  0.0555437536648498  0.5000004724437161  0.3643687063722183   T   T   T
  0.0555769868457361  0.7500034601593200  0.4814173207524703   T   T   T
  0.1111100019999967  0.5000000000000000  0.0418299999999974   F   F   F
  0.1111100019999967  0.7500000000000000  0.1489900050000017   F   F   F
  0.1111178839605671  0.4999989742993449  0.2565346641068871   T   T   T
  0.1111024962555547  0.7499970170367050  0.3705639843149200   T   T   T
  0.1110980452079033  0.5000002217897901  0.4705428320166618   T   T   T
  0.1666699949999995  0.7500000000000000  0.0418299999999974   F   F   F
  0.1666699949999995  0.5000000000000000  0.1489900050000017   F   F   F
  0.1666870440713240  0.7500019417423047  0.2590921678104507   T   T   T
  0.1666679564298263  0.5000001275497397  0.3643437026142280   T   T   T
  0.1667454529861203  0.7500257853009558  0.4813852434267787   T   T   T
  0.2222200040000004  0.5000000000000000  0.0418299999999974   F   F   F
  0.2222200040000004  0.7500000000000000  0.1489900050000017   F   F   F
  0.2222455437332869  0.5000003479531046  0.2565270863428211   T   T   T
  0.2222125265075263  0.7499913650771646  0.3705281452733615   T   T   T
  0.2222105343482141  0.5000001648376724  0.4705161701202911   T   T   T
  0.2777799959999996  0.7500000000000000  0.0418299999999974   F   F   F
  0.2777799959999996  0.5000000000000000  0.1489900050000017   F   F   F
  0.2778211223222726  0.7499990165593502  0.2590736138766943   T   T   T
  0.2777807618091970  0.5000002196598743  0.3643474502532129   T   T   T
  0.2778488271084072  0.7499986448719511  0.4813848612911542   T   T   T
  0.3333300050000005  0.5000000000000000  0.0418299999999974   F   F   F
  0.3333300050000005  0.7500000000000000  0.1489900050000017   F   F   F
  0.3333507653081327  0.5000002307423301  0.2565381458415388   T   T   T
  0.3333258260538372  0.7499950238107971  0.3705505566928835   T   T   T
  0.3333271643452349  0.5000000716257063  0.4705255962524859   T   T   T
  0.3888899980000033  0.7500000000000000  0.0418299999999974   F   F   F
  0.3888899980000033  0.5000000000000000  0.1489900050000017   F   F   F
  0.3889214397903515  0.7499989697064535  0.2590981846335154   T   T   T
  0.3888910396415852  0.5000001091530635  0.3643631609646789   T   T   T
  0.3889265605575005  0.7499958836115894  0.4814242427032411   T   T   T
  0.4444400069999972  0.5000000000000000  0.0418299999999974   F   F   F
  0.4444400069999972  0.7500000000000000  0.1489900050000017   F   F   F
  0.4444470212832385  0.4999999590137563  0.2565366268349791   T   T   T
  0.4444467192323742  0.7499922478166425  0.3705783335598198   T   T   T
  0.4444467365950757  0.5000000438818759  0.4705134755807947   T   T   T
  0.5000000000000000  0.7500000000000000  0.0418299999999974   F   F   F
  0.5000000000000000  0.5000000000000000  0.1489900050000017   F   F   F
  0.5000000109539968  0.7499986529716054  0.2590989733004534   T   T   T
  0.4999999979299972  0.5000000399357347  0.3643094377614418   T   T   T
  0.4999999614170534  0.7499937405466071  0.4814227667762694   T   T   T
  0.5555599930000028  0.5000000000000000  0.0418299999999974   F   F   F
  0.5555599930000028  0.7500000000000000  0.1489900050000017   F   F   F
  0.5555530029268141  0.4999999606895642  0.2565366307184860   T   T   T
  0.5555532769482170  0.7499922926684448  0.3705783387483947   T   T   T
  0.5555532011058020  0.5000000785077532  0.4705134638290431   T   T   T
  0.6111099720000013  0.7500000000000000  0.0418299999999974   F   F   F
  0.6111099720000013  0.5000000000000000  0.1489900050000017   F   F   F
  0.6110785757364354  0.7499989495519443  0.2590981637723644   T   T   T
  0.6111089687262705  0.4999999725857762  0.3643631492207575   T   T   T
  0.6110734157710951  0.7499959037589790  0.4814242327464839   T   T   T
  0.6666700239999983  0.5000000000000000  0.0418299999999974   F   F   F
  0.6666700239999983  0.7500000000000000  0.1489900050000017   F   F   F
  0.6666492749258026  0.5000001655093271  0.2565381318587754   T   T   T
  0.6666741702348844  0.7499948132122043  0.3705505418227659   T   T   T
  0.6666728403080242  0.5000000329978675  0.4705255749297734   T   T   T
  0.7222200040000004  0.7500000000000000  0.0418299999999974   F   F   F
  0.7222200040000004  0.5000000000000000  0.1489900050000017   F   F   F
  0.7221788866980603  0.7499989447640871  0.2590735942243043   T   T   T
  0.7222192469619557  0.4999999344846486  0.3643474261657573   T   T   T
  0.7221511836932137  0.7499986512348684  0.4813848163805403   T   T   T
  0.7777799959999996  0.5000000000000000  0.0418299999999974   F   F   F
  0.7777799959999996  0.7500000000000000  0.1489900050000017   F   F   F
  0.7777544932554576  0.5000001716048601  0.2565270944930447   T   T   T
  0.7777874612390292  0.7499910824833904  0.3705280585484161   T   T   T
  0.7777894761465589  0.5000001614861986  0.4705161399730997   T   T   T
  0.8333299760000017  0.7500000000000000  0.0418299999999974   F   F   F
  0.8333299760000017  0.5000000000000000  0.1489900050000017   F   F   F
  0.8333129775280668  0.7500018423286505  0.2590921137276752   T   T   T
  0.8333320463971887  0.5000000776012143  0.3643436524708434   T   T   T
  0.8332546118996049  0.7500255136903178  0.4813850627007596   T   T   T
  0.8888900279999987  0.5000000000000000  0.0418299999999974   F   F   F
  0.8888900279999987  0.7500000000000000  0.1489900050000017   F   F   F
  0.8888821083921385  0.4999987325713349  0.2565346650253915   T   T   T
  0.8888975505169583  0.7499967154022542  0.3705638376916980   T   T   T
  0.8889018821890886  0.5000001528972930  0.4705428163531806   T   T   T
  0.9444400069999972  0.7500000000000000  0.0418299999999974   F   F   F
  0.9444400069999972  0.5000000000000000  0.1489900050000017   F   F   F
  0.9444405376050184  0.7500113629100937  0.2590851415760795   T   T   T
  0.9444562144351067  0.5000002900622036  0.3643686775356940   T   T   T
  0.9444230024681701  0.7500034147397869  0.4814172298001154   T   T   T
  0.0000000000000000  0.2500000000000000  0.0000000000000000   F   F   F
  0.0000000000000000  0.0000000000000000  0.1071500030000010   F   F   F
  0.0000000821110930  0.2500082355537501  0.2159506492869170   T   T   T
  0.0000000480770836  0.9999998749094061  0.3234958021663061   T   T   T
  0.9999999828418424  0.2500459896060647  0.4336349468262242   T   T   T
  0.0000000000000000  0.2500000000000000  0.0836699979999977   F   F   F
  0.0000000000000000  0.0000000000000000  0.1908199940000017   F   F   F
  0.0000000879491537  0.2499428897998257  0.3014202065819447   T   T   T
  0.0000000451844642  0.0000001450677303  0.4088213257162820   T   T   T
  0.9999995702647766  0.2499984603974497  0.5187540131086692   T   T   T
  0.0555599999999998  0.0975999979999997  0.0418299999999974   F   F   F
  0.0555599999999998  0.3476000129999974  0.1489900050000017   F   F   F
  0.0555537017832606  0.0969533744166995  0.2576400775099899   T   T   T
  0.0555393069078676  0.3495996773259051  0.3674161608227635   T   T   T
  0.0555361168891721  0.0937691876704179  0.4807504221492209   T   T   T
  0.0555599999999998  0.4023999870000026  0.0418299999999974   F   F   F
  0.0555599999999998  0.1524000020000003  0.1489900050000017   F   F   F
  0.0555489667109867  0.4030319009694878  0.2576713186923953   T   T   T
  0.0555444541333827  0.1503873505847793  0.3674016268280056   T   T   T
  0.0555465141756741  0.4062329673178198  0.4809035904627876   T   T   T
  0.1111100019999967  0.2500000000000000  0.0000000000000000   F   F   F
  0.1111100019999967  0.0000000000000000  0.1071500030000010   F   F   F
  0.1111323202790970  0.2500049601799930  0.2159616797294248   T   T   T
  0.1111448096214005  0.0000001872033124  0.3235200733546861   T   T   T
  0.1111254219078219  0.2500404774785281  0.4336154033474315   T   T   T
  0.1111100019999967  0.2500000000000000  0.0836699979999977   F   F   F
  0.1111100019999967  0.0000000000000000  0.1908199940000017   F   F   F
  0.1111387114949878  0.2499671464372284  0.3014268301199365   T   T   T
  0.1111119515954684  0.0000001715174136  0.4088343746099596   T   T   T
  0.1111612063261944  0.2498673366576654  0.5187294112330463   T   T   T
  0.1666699949999995  0.0975999979999997  0.0418299999999974   F   F   F
  0.1666699949999995  0.3476000129999974  0.1489900050000017   F   F   F
  0.1666937524415957  0.0969510020370734  0.2576344958297767   T   T   T
  0.1666546423690960  0.3496018470108098  0.3674209570513298   T   T   T
  0.1666624104697618  0.0937508437099766  0.4807612296399881   T   T   T
  0.1666699949999995  0.4023999870000026  0.0418299999999974   F   F   F
  0.1666699949999995  0.1524000020000003  0.1489900050000017   F   F   F
  0.1666799338558604  0.4030468904698168  0.2576637988277142   T   T   T
  0.1666659314007219  0.1503957543337080  0.3674196544703605   T   T   T
  0.1666588635569752  0.4062348127820101  0.4808624660048508   T   T   T
  0.2222200040000004  0.2500000000000000  0.0000000000000000   F   F   F
  0.2222200040000004  0.0000000000000000  0.1071500030000010   F   F   F
  0.2222779055843560  0.2500080200174253  0.2159619395061867   T   T   T
  0.2222610431054761  0.0000003269244857  0.3235305296271775   T   T   T
  0.2222799538454723  0.2500425296184829  0.4336132529160324   T   T   T
  0.2222200040000004  0.2500000000000000  0.0836699979999977   F   F   F
  0.2222200040000004  0.0000000000000000  0.1908199940000017   F   F   F
  0.2222817127015091  0.2500029047611747  0.3014269233108706   T   T   T
  0.2222621918852994  0.0000005655111792  0.4088627194696883   T   T   T
  0.2222906438497532  0.2499353521419181  0.5187374233802018   T   T   T
  0.2777799959999996  0.0975999979999997  0.0418299999999974   F   F   F
  0.2777799959999996  0.3476000129999974  0.1489900050000017   F   F   F
  0.2778098878496564  0.0969597409715561  0.2576595696527875   T   T   T
  0.2777590106235763  0.3496062825930650  0.3674247113290932   T   T   T
  0.2777687391921901  0.0937589720761522  0.4807881102776079   T   T   T
  0.2777799959999996  0.4023999870000026  0.0418299999999974   F   F   F
  0.2777799959999996  0.1524000020000003  0.1489900050000017   F   F   F
  0.2777983958355037  0.4030448363770134  0.2576683670115472   T   T   T
  0.2777635954658493  0.1503985503417624  0.3674207469183273   T   T   T
  0.2777567530332590  0.4062413372099201  0.4808493832641076   T   T   T
  0.3333300050000005  0.2500000000000000  0.0000000000000000   F   F   F
  0.3333300050000005  0.0000000000000000  0.1071500030000010   F   F   F
  0.3333864093384307  0.2500074326536179  0.2159573365158778   T   T   T
  0.3333759128429534  0.0000002021820436  0.3235442817931613   T   T   T
  0.3333860731705656  0.2500344406852477  0.4336296181437689   T   T   T
  0.3333300050000005  0.2500000000000000  0.0836699979999977   F   F   F
  0.3333300050000005  0.0000000000000000  0.1908199940000017   F   F   F
  0.3333734262306720  0.2499872527788369  0.3014412473418062   T   T   T
  0.3333483527337577  0.0000001672321162  0.4088806105901028   T   T   T
  0.3333716851374575  0.2499632402221224  0.5187640614329041   T   T   T
  0.3888899980000033  0.0975999979999997  0.0418299999999974   F   F   F
  0.3888899980000033  0.3476000129999974  0.1489900050000017   F   F   F
  0.3889037950391696  0.0969519734386068  0.2576537733240798   T   T   T
  0.3888843636632728  0.3496121484515982  0.3674417102632646   T   T   T
  0.3888876101247050  0.0937499588069670  0.4808255155815004   T   T   T
  0.3888899980000033  0.4023999870000026  0.0418299999999974   F   F   F
  0.3888899980000033  0.1524000020000003  0.1489900050000017   F   F   F
  0.3888964949700622  0.4030533793869537  0.2576706346292426   T   T   T
  0.3888903455424213  0.1503977625791961  0.3674438439713228   T   T   T
  0.3888811838144761  0.4062561756662575  0.4808599944726453   T   T   T
  0.4444400069999972  0.2500000000000000  0.0000000000000000   F   F   F
  0.4444400069999972  0.0000000000000000  0.1071500030000010   F   F   F
  0.4444625489140677  0.2500065320220628  0.2159649891759017   T   T   T
  0.4444513103454639  0.0000001823860529  0.3235402000219878   T   T   T
  0.4444669313256711  0.2500202244144276  0.4336461270944270   T   T   T
  0.4444400069999972  0.2500000000000000  0.0836699979999977   F   F   F
  0.4444400069999972  0.0000000000000000  0.1908199940000017   F   F   F
  0.4444587546833958  0.2499970619044802  0.3014471843394446   T   T   T
  0.4444693979302201  0.0000000246847165  0.4088922934359260   T   T   T
  0.4444646984202123  0.2499980831843231  0.5187894188715987   T   T   T
  0.5000000000000000  0.0975999979999997  0.0418299999999974   F   F   F
  0.5000000000000000  0.3476000129999974  0.1489900050000017   F   F   F
  0.5000000037400483  0.0969458969085366  0.2576709078319652   T   T   T
  0.4999999933768109  0.3496103361699383  0.3674256042887478   T   T   T
  0.4999999970870377  0.0937557611831537  0.4808302326824858   T   T   T
  0.5000000000000000  0.4023999870000026  0.0418299999999974   F   F   F
  0.5000000000000000  0.1524000020000003  0.1489900050000017   F   F   F
  0.4999999998326885  0.4030594140154875  0.2576812081299664   T   T   T
  0.5000000018408670  0.1503982245447659  0.3674251635683277   T   T   T
  0.5000000049947033  0.4062484514051548  0.4808406399164156   T   T   T
  0.5555599930000028  0.2500000000000000  0.0000000000000000   F   F   F
  0.5555599930000028  0.0000000000000000  0.1071500030000010   F   F   F
  0.5555374511285009  0.2500065238287306  0.2159649955248995   T   T   T
  0.5555486918089514  0.0000001700112549  0.3235402018280809   T   T   T
  0.5555330478121832  0.2500202587547804  0.4336461392453899   T   T   T
  0.5555599930000028  0.2500000000000000  0.0836699979999977   F   F   F
  0.5555599930000028  0.0000000000000000  0.1908199940000017   F   F   F
  0.5555412427265551  0.2499970672780805  0.3014471952928162   T   T   T
  0.5555306098266612  0.0000000168731304  0.4088923044462547   T   T   T
  0.5555352741602135  0.2499980882516226  0.5187894294470183   T   T   T
  0.6111099720000013  0.0975999979999997  0.0418299999999974   F   F   F
  0.6111099720000013  0.3476000129999974  0.1489900050000017   F   F   F
  0.6110962118769621  0.0969519558567100  0.2576537747976886   T   T   T
  0.6111156691180000  0.3496120980219146  0.3674417147786428   T   T   T
  0.6111123873172062  0.0937499965270021  0.4808255006145288   T   T   T
  0.6111099720000013  0.4023999870000026  0.0418299999999974   F   F   F
  0.6111099720000013  0.1524000020000003  0.1489900050000017   F   F   F
  0.6111035037458947  0.4030533649199199  0.2576706264677711   T   T   T
  0.6111096530064941  0.1503976951668733  0.3674438493420311   T   T   T
  0.6111188034503670  0.4062561646029295  0.4808600158435610   T   T   T
  0.6666700239999983  0.2500000000000000  0.0000000000000000   F   F   F
  0.6666700239999983  0.0000000000000000  0.1071500030000010   F   F   F
  0.6666135964864353  0.2500074049574081  0.2159573435402038   T   T   T
  0.6666240815585809  0.0000001213627385  0.3235442819127101   T   T   T
  0.6666138832675657  0.2500344385696991  0.4336296398012891   T   T   T
  0.6666700239999983  0.2500000000000000  0.0836699979999977   F   F   F
  0.6666700239999983  0.0000000000000000  0.1908199940000017   F   F   F
  0.6666265755468359  0.2499871659968136  0.3014412973005136   T   T   T
  0.6666516498252264  0.9999999450017683  0.4088806306370074   T   T   T
  0.6666281836265568  0.2499631690705755  0.5187640774252742   T   T   T
  0.7222200040000004  0.0975999979999997  0.0418299999999974   F   F   F
  0.7222200040000004  0.3476000129999974  0.1489900050000017   F   F   F
  0.7221901081589621  0.0969596342958496  0.2576595706206888   T   T   T
  0.7222410531261758  0.3496060343801091  0.3674247293277233   T   T   T
  0.7222312870414314  0.0937589352635158  0.4807879204267493   T   T   T
  0.7222200040000004  0.4023999870000026  0.0418299999999974   F   F   F
  0.7222200040000004  0.1524000020000003  0.1489900050000017   F   F   F
  0.7222016111431415  0.4030447938537023  0.2576683701897409   T   T   T
  0.7222364595148392  0.1503982173249980  0.3674209283036163   T   T   T
  0.7222432206539580  0.4062413371838502  0.4808493835196970   T   T   T
  0.7777799959999996  0.2500000000000000  0.0000000000000000   F   F   F
  0.7777799959999996  0.0000000000000000  0.1071500030000010   F   F   F
  0.7777219883698336  0.2500079876096422  0.2159618801700347   T   T   T
  0.7777390002252034  0.0000004909525231  0.3235305516393367   T   T   T
  0.7777199784356270  0.2500425949526530  0.4336134390227713   T   T   T
  0.7777799959999996  0.2500000000000000  0.0836699979999977   F   F   F
  0.7777799959999996  0.0000000000000000  0.1908199940000017   F   F   F
  0.7777182818377355  0.2500025473230565  0.3014270189128894   T   T   T
  0.7777377430073642  0.9999994629295941  0.4088627372631564   T   T   T
  0.7777093406310982  0.2499353068931356  0.5187375106497072   T   T   T
  0.8333299760000017  0.0975999979999997  0.0418299999999974   F   F   F
  0.8333299760000017  0.3476000129999974  0.1489900050000017   F   F   F
  0.8333062446584805  0.0969507369274751  0.2576344412301736   T   T   T
  0.8333452023442263  0.3496017438486945  0.3674209847018872   T   T   T
  0.8333374995580272  0.0937507206454029  0.4807610219630689   T   T   T
  0.8333299760000017  0.4023999870000026  0.0418299999999974   F   F   F
  0.8333299760000017  0.1524000020000003  0.1489900050000017   F   F   F
  0.8333200578353868  0.4030469748275891  0.2576637856940778   T   T   T
  0.8333339358187715  0.1503955409715374  0.3674201350810193   T   T   T
  0.8333410397446599  0.4062344907775710  0.4808624574030134   T   T   T
  0.8888900279999987  0.2500000000000000  0.0000000000000000   F   F   F
  0.8888900279999987  0.0000000000000000  0.1071500030000010   F   F   F
  0.8888676970329570  0.2500049377438529  0.2159615647935809   T   T   T
  0.8888551540715355  0.0000001156030081  0.3235200952338602   T   T   T
  0.8888743208967540  0.2500405258054883  0.4336157243849428   T   T   T
  0.8888900279999987  0.2500000000000000  0.0836699979999977   F   F   F
  0.8888900279999987  0.0000000000000000  0.1908199940000017   F   F   F
  0.8888612339370709  0.2499669250051326  0.3014267447984054   T   T   T
  0.8888880991243227  0.9999996299523701  0.4088344014522463   T   T   T
  0.8888385941531496  0.2498670120554536  0.5187291064181423   T   T   T
  0.9444400069999972  0.0975999979999997  0.0418299999999974   F   F   F
  0.9444400069999972  0.3476000129999974  0.1489900050000017   F   F   F
  0.9444463480794667  0.0969531740292666  0.2576400596297503   T   T   T
  0.9444607667471132  0.3495996534441019  0.3674162113870594   T   T   T
  0.9444636956557559  0.0937692165811157  0.4807502960065761   T   T   T
  0.9444400069999972  0.4023999870000026  0.0418299999999974   F   F   F
  0.9444400069999972  0.1524000020000003  0.1489900050000017   F   F   F
  0.9444510822146555  0.4030320034286987  0.2576713266914510   T   T   T
  0.9444555626492814  0.1503874921478285  0.3674017130719704   T   T   T
  0.9444533587230097  0.4062326629666160  0.4809033285128521   T   T   T
  0.0000000000000000  0.7500000000000000  0.0000000000000000   F   F   F
  0.0000000000000000  0.5000000000000000  0.1071500030000010   F   F   F
  0.0000000328099219  0.7499894604895516  0.2159506553661430   T   T   T
  0.0000000158872311  0.4999996799359820  0.3235783751943018   T   T   T
  0.0000000278579577  0.7499548213595375  0.4336353530398753   T   T   T
  0.0000000000000000  0.7500000000000000  0.0836699979999977   F   F   F
  0.0000000000000000  0.5000000000000000  0.1908199940000017   F   F   F
  0.0000000168142122  0.7500544567573613  0.3014203191966089   T   T   T
  0.0000000153186903  0.5000000972802709  0.4089507523075397   T   T   T
  0.9999999707108671  0.7500022350711717  0.5187545635524415   T   T   T
  0.0555599999999998  0.5975999830000021  0.0418299999999974   F   F   F
  0.0555599999999998  0.8475999830000021  0.1489900050000017   F   F   F
  0.0555486522086781  0.5969656861824859  0.2576713914828019   T   T   T
  0.0555444584809024  0.8496129649521933  0.3674014156249115   T   T   T
  0.0555465460198903  0.5937680764948610  0.4809037178370446   T   T   T
  0.0555599999999998  0.9024000169999979  0.0418299999999974   F   F   F
  0.0555599999999998  0.6524000169999979  0.1489900050000017   F   F   F
  0.0555540032099273  0.9030446363372349  0.2576401228428153   T   T   T
  0.0555393436197065  0.6504007301428913  0.3674168076624369   T   T   T
  0.0555362362776748  0.9062312980076470  0.4807504502444075   T   T   T
  0.1111100019999967  0.7500000000000000  0.0000000000000000   F   F   F
  0.1111100019999967  0.5000000000000000  0.1071500030000010   F   F   F
  0.1111323081100437  0.7499934772103529  0.2159616366893147   T   T   T
  0.1111098013118763  0.5000001899904092  0.3235705285855559   T   T   T
  0.1111255277692891  0.7499605440345789  0.4336160157170639   T   T   T
  0.1111100019999967  0.7500000000000000  0.0836699979999977   F   F   F
  0.1111100019999967  0.5000000000000000  0.1908199940000017   F   F   F
  0.1111387836532742  0.7500312834222029  0.3014268157758053   T   T   T
  0.1111077505698219  0.5000001529629543  0.4089247715999988   T   T   T
  0.1111613907550506  0.7501334803093300  0.5187294936395261   T   T   T
  0.1666699949999995  0.5975999830000021  0.0418299999999974   F   F   F
  0.1666699949999995  0.8475999830000021  0.1489900050000017   F   F   F
  0.1666796624218421  0.5969523034380799  0.2576637859156392   T   T   T
  0.1666660334747476  0.8496047865718737  0.3674194924202894   T   T   T
  0.1666588800131379  0.5937660932909949  0.4808625712564165   T   T   T
  0.1666699949999995  0.9024000169999979  0.0418299999999974   F   F   F
  0.1666699949999995  0.6524000169999979  0.1489900050000017   F   F   F
  0.1666940231653768  0.9030485627435283  0.2576344654858502   T   T   T
  0.1666547367870379  0.6503987352181539  0.3674214222723009   T   T   T
  0.1666624548686855  0.9062496118401029  0.4807608814534134   T   T   T
  0.2222200040000004  0.7500000000000000  0.0000000000000000   F   F   F
  0.2222200040000004  0.5000000000000000  0.1071500030000010   F   F   F
  0.2222779646413784  0.7499917787777903  0.2159619119536771   T   T   T
  0.2222368171247524  0.5000004595682697  0.3235624332035982   T   T   T
  0.2222798875326717  0.7499579740419264  0.4336133528589841   T   T   T
  0.2222200040000004  0.7500000000000000  0.0836699979999977   F   F   F