Te-Ru0001-r3xr3-hcp                         
  2.704350
    1.7320508075688776    0.0000000000000000    0.0000000000000000
   -0.8660254037844388    1.5000000000000000    0.0000000000000000
    0.0000000000000000    0.0000000000000000   12.6553000000000004
   Te   Ru
    1   24
Direct          Plane group = p31m                              N   SiteLabel  Layer  Linking     FreeDir
  0.0000000000000000  0.0000000000000000  0.5998831241859561    1      Te_def      1     none      locked
  0.3269286490004292  0.3269286490004293  0.5380843790702199    2     Ru_surf      2        1       [1 1]
  0.6730713509995708  0.0000000000000000  0.5380843790702199    3     Ru_surf      2        1       [1 0]
  0.0000000000000001  0.6730713509995708  0.5380843790702199    4     Ru_surf      2        1       [0 1]
  0.3344007807221508  0.0000000000000001  0.4767531372106596    5      Ru_def      3        2       [1 0]
  0.6655992192778494  0.6655992192778495  0.4767531372106596    6      Ru_def      3        2       [1 1]
 -0.0000000000000000  0.3344007807221506  0.4767531372106596    7      Ru_def      3        2       [0 1]
  0.3365356754997851  0.3365356754997853  0.4145453267457693    8      Ru_def      4        3       [1 1]
  0.6634643245002149  0.0000000000000000  0.4145453267457693    9      Ru_def      4        3       [1 0]
  0.0000000000000001  0.6634643245002151  0.4145453267457693   10      Ru_def      4        3       [0 1]
  0.3333333333333336  0.0000000000000001  0.3511687581404395   11      Ru_def      5        4       [1 0]
  0.6666666666666666  0.6666666666666667  0.3511687581404395   12      Ru_def      5        4       [1 1]
  0.0000000000000000  0.3333333333333335  0.3511687581404395   13      Ru_def      5        4       [0 1]
  0.3333333333333333  0.3333333333333335  0.2889609476755498   14      Ru_def      6        5       [1 1]
  0.6666666666666667  0.0000000000000000  0.2889609476755498   15      Ru_def      6        5       [1 0]
  0.0000000000000001  0.6666666666666667  0.2889609476755498   16      Ru_def      6        5       [0 1]
  0.3333333333333336  0.0000000000000001  0.2255843790702197   17      Ru_def      7        6       [1 0]
  0.6666666666666666  0.6666666666666667  0.2255843790702197   18      Ru_def      7        6       [1 1]
  0.0000000000000000  0.3333333333333335  0.2255843790702197   19      Ru_def      7        6       [0 1]
  0.3333333333333333  0.3333333333333335  0.1624999999999997   20      Ru_def      8        7        bulk
  0.6666666666666667  0.0000000000000000  0.1624999999999997   21      Ru_def      8        7        bulk
  0.0000000000000001  0.6666666666666667  0.1624999999999997   22      Ru_def      8        7        bulk
  0.3333333333333336  0.0000000000000001  0.1000000000000000   23      Ru_def      9        8        bulk
  0.6666666666666666  0.6666666666666667  0.1000000000000000   24      Ru_def      9        8        bulk
  0.0000000000000000  0.3333333333333335  0.1000000000000000   25      Ru_def      9        8        bulk
