Cu2 O
1.0
        6.0217213631         0.0000000000         0.0000000000
       -3.0108606815         5.2149636749         0.0000000000
        0.0000000000         0.0000000000        36.8753623962
    O   Cu
   23   43
Direct
     0.000000000         0.000000000         0.000000000
     0.000000000         0.000000000         0.200000003
     0.000000000         0.000000000         0.400000006
     0.000000000         0.000000000         0.600000024
     0.666666687         0.333333343         0.066666670
     0.666666687         0.333333343         0.266666681
     0.666666687         0.333333343         0.466666669
     0.666666687         0.333333343         0.666666687
     0.333333343         0.666666687         0.133333340
     0.333333343         0.666666687         0.333333343
     0.333333343         0.666666687         0.533333361
     0.333333343         0.666666687         0.733333349
     0.000000000         0.000000000         0.100000001
     0.000000000         0.000000000         0.300000012
     0.000000000         0.000000000         0.500000000
     0.000000000         0.000000000         0.699999988
     0.666666687         0.333333343         0.166666657
     0.666666687         0.333333343         0.366666645
     0.666666687         0.333333343         0.566666663
     0.333333373         0.666666687         0.033333324
     0.333333373         0.666666687         0.233333305
     0.333333373         0.666666687         0.433333308
     0.333333373         0.666666687         0.633333325
     0.000000000         0.000000000         0.050000001
     0.000000000         0.000000000         0.250000000
     0.000000000         0.000000000         0.449999988
     0.000000000         0.000000000         0.649999976
     0.666666687         0.333333343         0.116666660
     0.666666687         0.333333343         0.316666663
     0.666666687         0.333333343         0.516666651
     0.333333343         0.666666687         0.183333337
     0.333333343         0.666666687         0.383333325
     0.333333343         0.666666687         0.583333313
     0.166666672         0.833333313         0.116666660
     0.166666672         0.833333313         0.316666663
     0.166666672         0.833333313         0.516666651
     0.166666672         0.833333313         0.716666639
     0.833333313         0.166666627         0.183333322
     0.833333313         0.166666627         0.383333325
     0.833333313         0.166666627         0.583333313
     0.500000000         0.500000000         0.050000001
     0.500000000         0.500000000         0.250000000
     0.500000000         0.500000000         0.449999988
     0.500000000         0.500000000         0.649999976
     0.666666687         0.833333313         0.116666660
     0.666666687         0.833333313         0.316666663
     0.666666687         0.833333313         0.516666651
     0.666666687         0.833333313         0.716666639
     0.333333373         0.166666627         0.183333322
     0.333333373         0.166666627         0.383333325
     0.333333373         0.166666627         0.583333313
     0.000000000         0.500000000         0.050000001
     0.000000000         0.500000000         0.250000000
     0.000000000         0.500000000         0.449999988
     0.000000000         0.500000000         0.649999976
     0.166666672         0.333333343         0.116666660
     0.166666672         0.333333343         0.316666663
     0.166666672         0.333333343         0.516666651
     0.166666672         0.333333343         0.716666639
     0.833333313         0.666666687         0.183333322
     0.833333313         0.666666687         0.383333325
     0.833333313         0.666666687         0.583333313
     0.500000000         0.000000000         0.050000001
     0.500000000         0.000000000         0.250000000
     0.500000000         0.000000000         0.449999988
     0.500000000         0.000000000         0.649999976
