Ag(100) 1x1 clean                                     
  2.880000
    1.0000000000000000    0.0000000000000000    0.0000000000000000
    0.0000000000000000    1.0000000000000000    0.0000000000000000
    0.0000000000000000    0.0000000000000000    7.0710678099999997
   Ag
    6
Direct          Plane group = p4m                               N   SiteLabel  Layer  Linking     FreeDir
  0.0000000000000000  0.0000000000000000  0.8000000000000000    1     Ag_surf      1     none      locked
  0.4999999999999999  0.4999999999999999  0.7000000000000000    2      Ag_def      2     none      locked
  0.0000000000000000  0.0000000000000000  0.6000000000000000    3      Ag_def      3     none      locked
  0.4999999999999999  0.4999999999999999  0.5000000000000000    4      Ag_def      4     none      locked
  0.0000000000000000  0.0000000000000000  0.4000000000000000    5      Ag_def      5     none      locked
  0.4999999999999999  0.4999999999999999  0.2999999999999999    6      Ag_def      6     none        bulk
