Sb Si root3
  1.000000
   13.3955926895000008    0.0000000000000000    0.0000000000000000
    0.0000000000000000   11.6009254455999997    0.0000000000000000
    0.0000000000000000    0.0000000000000000    9.4721145629999999
   Si   Sb
   72   12
Direct          Plane group = p1 (found pm[1 0])                N   SiteLabel  Layer  Linking     FreeDir
  0.0833330010000000  0.0000000140000000  0.4166670140000001    1      Si_def      2     none        free
  0.0833330010000000  0.3333330150000000  0.4166670140000001    2      Si_def      2     none        free
  0.0833330010000000  0.6666660299999999  0.4166670140000001    3      Si_def      2     none        free
  0.5833330150000000  0.0000000140000000  0.4166670140000001    4      Si_def      2     none        free
  0.5833330150000000  0.3333330150000000  0.4166670140000001    5      Si_def      2     none        free
  0.5833330150000000  0.6666660299999999  0.4166670140000001    6      Si_def      2     none        free
  0.2500000000000000  0.0000000140000000  0.7500000000000000    7      Si_def      1     none        free
  0.2500000000000000  0.3333330150000000  0.7500000000000000    8      Si_def      1     none        free
  0.2500000000000000  0.6666660299999999  0.7500000000000000    9      Si_def      1     none        free
  0.7500000000000000  0.0000000140000000  0.7500000000000000   10      Si_def      1     none        free
  0.7500000000000000  0.3333330150000000  0.7500000000000000   11      Si_def      1     none        free
  0.7500000000000000  0.6666660299999999  0.7500000000000000   12      Si_def      1     none        free
  0.4166670140000000  0.0000000140000000  0.0833330010000001   13      Si_def      3     none        bulk
  0.4166670140000000  0.3333330150000000  0.0833330010000001   14      Si_def      3     none        bulk
  0.4166670140000000  0.6666660299999999  0.0833330010000001   15      Si_def      3     none        bulk
  0.9166669850000000  0.0000000140000000  0.0833330010000001   16      Si_def      3     none        bulk
  0.9166669850000000  0.3333330150000000  0.0833330010000001   17      Si_def      3     none        bulk
  0.9166669850000000  0.6666660299999999  0.0833330010000001   18      Si_def      3     none        bulk
  0.3333329860000000  0.8333330149999999  0.1666669990000000   19      Si_def      3     none        bulk
  0.3333329860000000  0.1666660009999999  0.1666669990000000   21      Si_def      3     none        bulk
  0.3333329860000000  0.4999999999999999  0.1666669990000000   22      Si_def      3     none        bulk
  0.8333330150000001  0.8333330149999999  0.1666669990000000   23      Si_def      3     none        bulk
  0.8333330150000001  0.1666660009999999  0.1666669990000000   25      Si_def      3     none        bulk
  0.8333330150000001  0.4999999999999999  0.1666669990000000   26      Si_def      3     none        bulk
  0.0000000000000000  0.8333330149999999  0.5000000000000000   27      Si_def      2     none        free
  0.0000000000000000  0.1666660009999999  0.5000000000000000   31      Si_def      2     none        free
  0.0000000000000000  0.4999999999999999  0.5000000000000000   34      Si_def      2     none        free
  0.5000000000000000  0.8333330149999999  0.5000000000000000   36      Si_def      2     none        free
  0.5000000000000000  0.1666660009999999  0.5000000000000000   37      Si_def      2     none        free
  0.5000000000000000  0.4999999999999999  0.5000000000000000   38      Si_def      2     none        free
  0.1666660010000000  0.8333330149999999  0.8333330150000000   39      Si_def      1     none        free
  0.1666660010000000  0.1666660009999999  0.8333330150000000   41      Si_def      1     none        free
  0.1666660010000000  0.4999999999999999  0.8333330150000000   42      Si_def      1     none        free
  0.6666669850000000  0.8333330149999999  0.8333330150000000   43      Si_def      1     none        free
  0.6666669850000000  0.1666660009999999  0.8333330150000000   45      Si_def      1     none        free
  0.6666669850000000  0.4999999999999999  0.8333330150000000   46      Si_def      1     none        free
  0.3333329860000000  0.8333330149999999  0.4166670140000001   47      Si_def      2     none        free
  0.3333329860000000  0.1666660009999999  0.4166670140000001   49      Si_def      2     none        free
  0.3333329860000000  0.4999999999999999  0.4166670140000001   50      Si_def      2     none        free
  0.8333330150000001  0.8333330149999999  0.4166670140000001   51      Si_def      2     none        free
  0.8333330150000001  0.1666660009999999  0.4166670140000001   53      Si_def      2     none        free
  0.8333330150000001  0.4999999999999999  0.4166670140000001   54      Si_def      2     none        free
  0.0000000000000000  0.8333330149999999  0.7500000000000000   58      Si_def      1     none        free
  0.0000000000000000  0.1666660009999999  0.7500000000000000   60      Si_def      1     none        free
  0.0000000000000000  0.4999999999999999  0.7500000000000000   62      Si_def      1     none        free
  0.5000000000000000  0.8333330149999999  0.7500000000000000   64      Si_def      1     none        free
  0.5000000000000000  0.1666660009999999  0.7500000000000000   65      Si_def      1     none        free
  0.5000000000000000  0.4999999999999999  0.7500000000000000   66      Si_def      1     none        free
  0.1666660010000000  0.8333330149999999  0.0833330010000001   68      Si_def      3     none        bulk
  0.1666660010000000  0.1666660009999999  0.0833330010000001   69      Si_def      3     none        bulk
  0.1666660010000000  0.4999999999999999  0.0833330010000001   70      Si_def      3     none        bulk
  0.6666669850000000  0.8333330149999999  0.0833330010000001   72      Si_def      3     none        bulk
  0.6666669850000000  0.1666660009999999  0.0833330010000001   73      Si_def      3     none        bulk
  0.6666669850000000  0.4999999999999999  0.0833330010000001   74      Si_def      3     none        bulk
  0.0833330010000000  0.0000000140000000  0.1666669990000000   75      Si_def      3     none        bulk
  0.0833330010000000  0.3333330150000000  0.1666669990000000   76      Si_def      3     none        bulk
  0.0833330010000000  0.6666660299999999  0.1666669990000000   77      Si_def      3     none        bulk
  0.5833330150000000  0.0000000140000000  0.1666669990000000   78      Si_def      3     none        bulk
  0.5833330150000000  0.3333330150000000  0.1666669990000000   79      Si_def      3     none        bulk
  0.5833330150000000  0.6666660299999999  0.1666669990000000   80      Si_def      3     none        bulk
  0.2500000000000000  0.0000000140000000  0.5000000000000000   81      Si_def      2     none        free
  0.2500000000000000  0.3333330150000000  0.5000000000000000   82      Si_def      2     none        free
  0.2500000000000000  0.6666660299999999  0.5000000000000000   83      Si_def      2     none        free
  0.7500000000000000  0.0000000140000000  0.5000000000000000   84      Si_def      2     none        free
  0.7500000000000000  0.3333330150000000  0.5000000000000000   85      Si_def      2     none        free
  0.7500000000000000  0.6666660299999999  0.5000000000000000   86      Si_def      2     none        free
  0.4166670140000000  0.0000000140000000  0.8333330150000000   87      Si_def      1     none        free
  0.4166670140000000  0.3333330150000000  0.8333330150000000   88      Si_def      1     none        free
  0.4166670140000000  0.6666660299999999  0.8333330150000000   89      Si_def      1     none        free
  0.9166669850000000  0.0000000140000000  0.8333330150000000   90      Si_def      1     none        free
  0.9166669850000000  0.3333330150000000  0.8333330150000000   91      Si_def      1     none        free
  0.9166669850000000  0.6666660299999999  0.8333330150000000   92      Si_def      1     none        free
  0.1000000010000000  0.4999999999999999  0.9499999879999999  107      Sb_def      1     none        free
  0.6000000240000000  0.4999999999999999  0.9499999879999999  108      Sb_def      1     none        free
  0.2000000030000000  0.9016660150000000  0.9499999879999999  109      Sb_def      1     none        free
  0.6999999880000000  0.9016660150000000  0.9499999879999999  110      Sb_def      1     none        free
  0.3470000030000000  0.0003330110000000  0.9499999879999999  111      Sb_def      1     none        free
  0.8470000030000000  0.0003330110000000  0.9499999879999999  112      Sb_def      1     none        free
  0.2000000030000000  0.1016660029999999  0.9499999879999999  113      Sb_def      1     none        free
  0.6999999880000000  0.1016660029999999  0.9499999879999999  114      Sb_def      1     none        free
  0.4499999880000000  0.6006659859999999  0.9499999879999999  115      Sb_def      1     none        free
  0.9499999880000002  0.6006659859999999  0.9499999879999999  116      Sb_def      1     none        free
  0.4499999880000000  0.4016660450000000  0.9499999879999999  117      Sb_def      1     none        free
  0.9499999880000002  0.4016660450000000  0.9499999879999999  118      Sb_def      1     none        free
