Pt25Rh75 Sporn 1998
  2.708000
    3.0000000000000000    0.0000000000000000    0.0000000000000000
    0.0000000000000000    1.0000000000000000    0.0000000000000000
    0.0000000000000000    0.0000000000000000    7.0710678099999997
    O   Me
    2   18
Direct
  0.2246913580246914  0.5000000000000001  0.8597537543102178
  0.7753086419753086  0.5000000000000000  0.8597537543102178
  0.0000000000000000  0.5000000000000000  0.8293743518512255
  0.3343808985000000  0.0000000000000001  0.8094706054125755
  0.6656191015000000  0.0000000000000001  0.8094706054125755
  0.1666666795000000  0.5000000000000001  0.6968573031938974
  0.5000000000000000  0.5000000000000000  0.7005237828010171
  0.8333333205000000  0.5000000000000000  0.6968573031938974
  0.0000000000000000  0.0000000000000000  0.6000000000000000
  0.3333333279999998  0.0000000000000001  0.6000000000000000
  0.6666666720000002  0.0000000000000001  0.6000000000000000
  0.1666666795000000  0.5000000000000001  0.5005237828010169
  0.5000000000000000  0.5000000000000000  0.5005237828010169
  0.8333333205000000  0.5000000000000000  0.5005237828010169
  0.0000000000000000  0.0000000000000000  0.4000000000000000
  0.3333333279999998  0.0000000000000001  0.4000000000000000
  0.6666666720000002  0.0000000000000001  0.4000000000000000
  0.1666666795000000  0.5000000000000001  0.3000000000000000
  0.5000000000000000  0.5000000000000000  0.3000000000000000
  0.8333333205000000  0.5000000000000000  0.3000000000000000
