Graphene                                
   1.00000000000000     
    13.2500000000000000    0.0000000000000000    0.0000000000000000
     0.0000000000000000   13.7698039202999993    0.0000000000000000
     0.0000000000000000    0.0000000000000000   30.0000000000000000
   C 
    36
Selective dynamics
Direct
  0.1666666667000030  0.0000000000000000  0.5000000000000000   F   F   F
  0.0000000000000000  0.0833333332999970  0.5000000000000000   T   T   F
  0.1666666667000030  0.1666666667000030  0.5000000000000000   T   T   F
  0.0000000000000000  0.2500000000000000  0.5000000000000000   T   T   F
  0.1666666667000030  0.3333333332999970  0.5000000000000000   T   T   F
  0.0000000000000000  0.4166666667000030  0.5000000000000000   T   T   F
  0.1666666667000030  0.5000000000000000  0.5000000000000000   T   T   F
  0.0000000000000000  0.5833333332999970  0.5000000000000000   T   T   F
  0.1666666667000030  0.6666666667000030  0.5000000000000000   T   T   F
  0.0000000000000000  0.7500000000000000  0.5000000000000000   T   T   F
  0.1666666667000030  0.8333333332999970  0.5000000000000000   T   T   F
  0.0000000000000000  0.9166666667000030  0.5000000000000000   T   T   F
  0.5000000000000000  0.0000000000000000  0.5000000000000000   T   T   F
  0.3333333332999970  0.0833333332999970  0.5000000000000000   T   T   F
  0.5000000000000000  0.1666666667000030  0.5000000000000000   T   T   F
  0.3333333332999970  0.2500000000000000  0.5000000000000000   T   T   F
  0.5000000000000000  0.3333333332999970  0.5000000000000000   T   T   F
  0.3333333332999970  0.4166666667000030  0.5000000000000000   T   T   F
  0.5000000000000000  0.5000000000000000  0.5000000000000000   T   T   F
  0.3333333332999970  0.5833333332999970  0.5000000000000000   T   T   F
  0.5000000000000000  0.6666666667000030  0.5000000000000000   T   T   F
  0.3333333332999970  0.7500000000000000  0.5000000000000000   T   T   F
  0.5000000000000000  0.8333333332999970  0.5000000000000000   T   T   F
  0.3333333332999970  0.9166666667000030  0.5000000000000000   T   T   F
  0.8333333332999970  0.0000000000000000  0.5000000000000000   T   T   F
  0.6666666667000030  0.0833333332999970  0.5000000000000000   T   T   F
  0.8333333332999970  0.1666666667000030  0.5000000000000000   T   T   F
  0.6666666667000030  0.2500000000000000  0.5000000000000000   T   T   F
  0.8333333332999970  0.3333333332999970  0.5000000000000000   T   T   F
  0.6666666667000030  0.4166666667000030  0.5000000000000000   T   T   F
  0.8333333332999970  0.5000000000000000  0.5000000000000000   T   T   F
  0.6666666667000030  0.5833333332999970  0.5000000000000000   T   T   F
  0.8333333332999970  0.6666666667000030  0.5000000000000000   T   T   F
  0.6666666667000030  0.7500000000000000  0.5000000000000000   T   T   F
  0.8333333332999970  0.8333333332999970  0.5000000000000000   T   T   F
  0.6666666667000030  0.9166666667000030  0.5000000000000000   T   T   F
 
  0.00000000E+00  0.00000000E+00  0.00000000E+00
  0.00000000E+00  0.00000000E+00  0.00000000E+00
  0.00000000E+00  0.00000000E+00  0.00000000E+00
  0.00000000E+00  0.00000000E+00  0.00000000E+00
  0.00000000E+00  0.00000000E+00  0.00000000E+00
  0.00000000E+00  0.00000000E+00  0.00000000E+00
  0.00000000E+00  0.00000000E+00  0.00000000E+00
  0.00000000E+00  0.00000000E+00  0.00000000E+00
  0.00000000E+00  0.00000000E+00  0.00000000E+00
  0.00000000E+00  0.00000000E+00  0.00000000E+00
  0.00000000E+00  0.00000000E+00  0.00000000E+00
  0.00000000E+00  0.00000000E+00  0.00000000E+00
  0.00000000E+00  0.00000000E+00  0.00000000E+00
  0.00000000E+00  0.00000000E+00  0.00000000E+00
  0.00000000E+00  0.00000000E+00  0.00000000E+00
  0.00000000E+00  0.00000000E+00  0.00000000E+00
  0.00000000E+00  0.00000000E+00  0.00000000E+00
  0.00000000E+00  0.00000000E+00  0.00000000E+00
  0.00000000E+00  0.00000000E+00  0.00000000E+00
  0.00000000E+00  0.00000000E+00  0.00000000E+00
  0.00000000E+00  0.00000000E+00  0.00000000E+00
  0.00000000E+00  0.00000000E+00  0.00000000E+00
  0.00000000E+00  0.00000000E+00  0.00000000E+00
  0.00000000E+00  0.00000000E+00  0.00000000E+00
  0.00000000E+00  0.00000000E+00  0.00000000E+00
  0.00000000E+00  0.00000000E+00  0.00000000E+00
  0.00000000E+00  0.00000000E+00  0.00000000E+00
  0.00000000E+00  0.00000000E+00  0.00000000E+00
  0.00000000E+00  0.00000000E+00  0.00000000E+00
  0.00000000E+00  0.00000000E+00  0.00000000E+00
  0.00000000E+00  0.00000000E+00  0.00000000E+00
  0.00000000E+00  0.00000000E+00  0.00000000E+00
  0.00000000E+00  0.00000000E+00  0.00000000E+00
  0.00000000E+00  0.00000000E+00  0.00000000E+00
  0.00000000E+00  0.00000000E+00  0.00000000E+00
  0.00000000E+00  0.00000000E+00  0.00000000E+00
