Si4 C4
  1.000000
    3.0730000000000000    0.0000000000000000    0.0000000000000000
   -1.5365000000000000    2.6612960659999998    0.0000000000000000
    0.0000000000000000    0.0000000000000000   31.4156249999999986
    H   Si    C
    1    8    8
Direct          Plane group = p3m1                              N   SiteLabel  Layer  Linking     FreeDir
  0.6666666666666666  0.3333333333333334  0.7243004142470154    1       H_def      1     none      locked
  0.6666666666666666  0.3333333333333334  0.6787226508899378    2     Si_surf      1     none      locked
  0.0000000000000000  0.0000000000000000  0.5990409638313466    3      Si_def      2     none      locked
  0.3333333333333334  0.6666666666666669  0.5190382322684036    4      Si_def      3     none      locked
  0.0000000000000000  0.0000000000000000  0.4387130904196276    5      Si_def      4     none      locked
  0.6666666666666666  0.3333333333333334  0.3599999999999998    6      Si_def      5     none        bulk
  0.0000000000000000  0.0000000000000000  0.2800000000000000    7      Si_def      5     none        bulk
  0.3333333333333334  0.6666666666666669  0.2000000000000001    8      Si_def      6     none        bulk
  0.0000000000000000  0.0000000000000000  0.1200000000000000    9      Si_def      6     none        bulk
  0.0000000000000000  0.0000000000000000  0.6612787148915338   10      C_surf      1     none      locked
  0.3333333333333334  0.6666666666666669  0.5799972684370541   11       C_def      2     none      locked
  0.0000000000000000  0.0000000000000000  0.5019057803040433   12       C_def      3     none      locked
  0.6666666666666666  0.3333333333333334  0.4164794367038616   13       C_def      4     none      locked
  0.0000000000000000  0.0000000000000000  0.3399999999999996   14       C_def      5     none        bulk
  0.3333333333333334  0.6666666666666669  0.2600000000000000   15       C_def      5     none        bulk
  0.0000000000000000  0.0000000000000000  0.1799999999999999   16       C_def      6     none        bulk
  0.6666666666666666  0.3333333333333334  0.1000000000000000   17       C_def      6     none        bulk
