Cu2 O                                   
   1.00000000000000     
     6.0217213631000002    0.0000000000000000    0.0000000000000000
    -3.0108606815000001    5.2149636748999999    0.0000000000000000
     0.0000000000000000    0.0000000000000000   36.8753623962000034
   O    Cu
    22    43
Selective dynamics
Direct
  0.0000000000000000  0.0000000000000000  0.2000000029999995   F   F   F
  0.0000000000000000  0.0000000000000000  0.4024237375841218   F   F   T
  0.0000000000000000  0.0000000000000000  0.6050817246455913   F   F   T
  0.6666666870000029  0.3333333429999996  0.0666666699999965   F   F   F
  0.6666666870000029  0.3333333429999996  0.2666666809999967   F   F   F
  0.6666666870000029  0.3333333429999996  0.4710864559111568   F   F   T
  0.6666666870000029  0.3333333429999996  0.6713678031950256   F   F   T
  0.3333333429999996  0.6666666870000029  0.1333333400000001   F   F   F
  0.3333333429999996  0.6666666870000029  0.3355407543555021   F   F   T
  0.3333333429999996  0.6666666870000029  0.5380653478781307   F   F   T
  0.3333333429999996  0.6666666870000029  0.7298635879964208   F   F   T
  0.0000000000000000  0.0000000000000000  0.1000000009999980   F   F   F
  0.0000000000000000  0.0000000000000000  0.3002982365473104   F   F   T
  0.0000000000000000  0.0000000000000000  0.5030653719515293   F   F   T
  0.0000000000000000  0.0000000000000000  0.7054677934736219   F   F   T
  0.6666666870000029  0.3333333429999996  0.1666666570000004   F   F   F
  0.6666666870000029  0.3333333429999996  0.3671582299931626   F   F   T
  0.6666666870000029  0.3333333429999996  0.5713359676903488   F   F   T
  0.3333333730000021  0.6666666870000029  0.0333333239999973   F   F   F
  0.3333333730000021  0.6666666870000029  0.2333333050000022   F   F   F
  0.3333333730000021  0.6666666870000029  0.4361843765087747   F   F   T
  0.3333333730000021  0.6666666870000029  0.6380363589364263   F   F   T
  0.0000000000000000  0.0000000000000000  0.0500000010000008   F   F   F
  0.0000000000000000  0.0000000000000000  0.2500000000000000   F   F   F
  0.0000000000000000  0.0000000000000000  0.4527591686924280   F   F   T
  0.0000000000000000  0.0000000000000000  0.6553506097804080   F   F   T
  0.6666666870000029  0.3333333429999996  0.1166666599999999   F   F   F
  0.6666666870000029  0.3333333429999996  0.3168356508059378   F   F   T
  0.6666666870000029  0.3333333429999996  0.5213826510789566   F   F   T
  0.3333333429999996  0.6666666870000029  0.1833333370000005   F   F   F
  0.3333333429999996  0.6666666870000029  0.3859513089950827   F   F   T
  0.3333333429999996  0.6666666870000029  0.5883789594024132   F   F   T
  0.1666666719999981  0.8333333129999971  0.1166666599999999   F   F   F
  0.1666666719999981  0.8333333129999971  0.3178334208481685   F   F   T
  0.1666666719999981  0.8333333129999971  0.5206681732918361   F   F   T
  0.1666666719999981  0.8333333129999971  0.7159390172104961   F   F   T
  0.8333333129999971  0.1666666269999979  0.1833333220000029   F   F   F
  0.8333333129999971  0.1666666269999979  0.3847542819964834   F   F   T
  0.8333333129999971  0.1666666269999979  0.5883531875893870   F   F   T
  0.5000000000000000  0.5000000000000000  0.0500000010000008   F   F   F
  0.5000000000000000  0.5000000000000000  0.2500000000000000   F   F   F
  0.5000000000000000  0.5000000000000000  0.4536222215109951   F   F   T
  0.5000000000000000  0.5000000000000000  0.6559835339599097   F   F   T
  0.6666666870000029  0.8333333129999971  0.1166666599999999   F   F   F
  0.6666666870000029  0.8333333129999971  0.3178334208481685   F   F   T
  0.6666666870000029  0.8333333129999971  0.5206681732918361   F   F   T
  0.6666666870000029  0.8333333129999971  0.7159390172104961   F   F   T
  0.3333333730000021  0.1666666269999979  0.1833333220000029   F   F   F
  0.3333333730000021  0.1666666269999979  0.3847542819964834   F   F   T
  0.3333333730000021  0.1666666269999979  0.5883531875893870   F   F   T
  0.0000000000000000  0.5000000000000000  0.0500000010000008   F   F   F
  0.0000000000000000  0.5000000000000000  0.2500000000000000   F   F   F
  0.0000000000000000  0.5000000000000000  0.4536222215109951   F   F   T
  0.0000000000000000  0.5000000000000000  0.6559835339599097   F   F   T
  0.1666666719999981  0.3333333429999996  0.1166666599999999   F   F   F
  0.1666666719999981  0.3333333429999996  0.3178334208481685   F   F   T
  0.1666666719999981  0.3333333429999996  0.5206681732918361   F   F   T
  0.1666666719999981  0.3333333429999996  0.7159390172104961   F   F   T
  0.8333333129999971  0.6666666870000029  0.1833333220000029   F   F   F
  0.8333333129999971  0.6666666870000029  0.3847542819964834   F   F   T
  0.8333333129999971  0.6666666870000029  0.5883531875893870   F   F   T
  0.5000000000000000  0.0000000000000000  0.0500000010000008   F   F   F
  0.5000000000000000  0.0000000000000000  0.2500000000000000   F   F   F
  0.5000000000000000  0.0000000000000000  0.4536222215109951   F   F   T
  0.5000000000000000  0.0000000000000000  0.6559835339599097   F   F   T
 
  0.00000000E+00  0.00000000E+00  0.00000000E+00
  0.00000000E+00  0.00000000E+00  0.00000000E+00
  0.00000000E+00  0.00000000E+00  0.00000000E+00
  0.00000000E+00  0.00000000E+00  0.00000000E+00
  0.00000000E+00  0.00000000E+00  0.00000000E+00
  0.00000000E+00  0.00000000E+00  0.00000000E+00
  0.00000000E+00  0.00000000E+00  0.00000000E+00
  0.00000000E+00  0.00000000E+00  0.00000000E+00
  0.00000000E+00  0.00000000E+00  0.00000000E+00
  0.00000000E+00  0.00000000E+00  0.00000000E+00
  0.00000000E+00  0.00000000E+00  0.00000000E+00
  0.00000000E+00  0.00000000E+00  0.00000000E+00
  0.00000000E+00  0.00000000E+00  0.00000000E+00
  0.00000000E+00  0.00000000E+00  0.00000000E+00
  0.00000000E+00  0.00000000E+00  0.00000000E+00
  0.00000000E+00  0.00000000E+00  0.00000000E+00
  0.00000000E+00  0.00000000E+00  0.00000000E+00
  0.00000000E+00  0.00000000E+00  0.00000000E+00
  0.00000000E+00  0.00000000E+00  0.00000000E+00
  0.00000000E+00  0.00000000E+00  0.00000000E+00
  0.00000000E+00  0.00000000E+00  0.00000000E+00
  0.00000000E+00  0.00000000E+00  0.00000000E+00
  0.00000000E+00  0.00000000E+00  0.00000000E+00
  0.00000000E+00  0.00000000E+00  0.00000000E+00
  0.00000000E+00  0.00000000E+00  0.00000000E+00
  0.00000000E+00  0.00000000E+00  0.00000000E+00
  0.00000000E+00  0.00000000E+00  0.00000000E+00
  0.00000000E+00  0.00000000E+00  0.00000000E+00
  0.00000000E+00  0.00000000E+00  0.00000000E+00
  0.00000000E+00  0.00000000E+00  0.00000000E+00
  0.00000000E+00  0.00000000E+00  0.00000000E+00
  0.00000000E+00  0.00000000E+00  0.00000000E+00
  0.00000000E+00  0.00000000E+00  0.00000000E+00
  0.00000000E+00  0.00000000E+00  0.00000000E+00
  0.00000000E+00  0.00000000E+00  0.00000000E+00
  0.00000000E+00  0.00000000E+00  0.00000000E+00
  0.00000000E+00  0.00000000E+00  0.00000000E+00
  0.00000000E+00  0.00000000E+00  0.00000000E+00
  0.00000000E+00  0.00000000E+00  0.00000000E+00
  0.00000000E+00  0.00000000E+00  0.00000000E+00
  0.00000000E+00  0.00000000E+00  0.00000000E+00
  0.00000000E+00  0.00000000E+00  0.00000000E+00
  0.00000000E+00  0.00000000E+00  0.00000000E+00
  0.00000000E+00  0.00000000E+00  0.00000000E+00
  0.00000000E+00  0.00000000E+00  0.00000000E+00
  0.00000000E+00  0.00000000E+00  0.00000000E+00
  0.00000000E+00  0.00000000E+00  0.00000000E+00
  0.00000000E+00  0.00000000E+00  0.00000000E+00
  0.00000000E+00  0.00000000E+00  0.00000000E+00
  0.00000000E+00  0.00000000E+00  0.00000000E+00
  0.00000000E+00  0.00000000E+00  0.00000000E+00
  0.00000000E+00  0.00000000E+00  0.00000000E+00
  0.00000000E+00  0.00000000E+00  0.00000000E+00
  0.00000000E+00  0.00000000E+00  0.00000000E+00
  0.00000000E+00  0.00000000E+00  0.00000000E+00
  0.00000000E+00  0.00000000E+00  0.00000000E+00
  0.00000000E+00  0.00000000E+00  0.00000000E+00
  0.00000000E+00  0.00000000E+00  0.00000000E+00
  0.00000000E+00  0.00000000E+00  0.00000000E+00
  0.00000000E+00  0.00000000E+00  0.00000000E+00
  0.00000000E+00  0.00000000E+00  0.00000000E+00
  0.00000000E+00  0.00000000E+00  0.00000000E+00
  0.00000000E+00  0.00000000E+00  0.00000000E+00
  0.00000000E+00  0.00000000E+00  0.00000000E+00
  0.00000000E+00  0.00000000E+00  0.00000000E+00
