fcc                                     
   1.00000000000000     
    40.5600000000000023   -8.7814973999999992    0.0000000000000000
   -12.6750000000000007   39.5167383000000001    0.0000000000000000
     0.0000000000000000    0.0000000000000000   14.0000000000000000
   Ni Al Al Al O O
 402 134 132 188 188 213
Selective dynamics
Direct
  0.0820895992043873  0.9626865991108460  0.2956884285714310   F   F   F
  0.9875621997526380  0.9601989997607205  0.1478442857142852   F   F   F
  0.0398009996988833  0.0273631990364223  0.1478442857142852   F   F   F
  0.0671642000002279  0.0149254005529897  0.2956884285714310   F   F   F
  0.0522387999462381  0.0671641992757017  0.2956884285714310   F   F   F
  0.0099502004407341  0.1318407992012780  0.1478442857142852   F   F   F
  0.0373134007420788  0.1194030007178455  0.2956884285714310   F   F   F
  0.0223880998685217  0.1716418012360705  0.2956884285714310   F   F   F
  0.0074626998145391  0.2238805999587825  0.2956884285714310   F   F   F
  0.9925372997605564  0.2761193986815016  0.2956884285714310   F   F   F
  0.1492536986749258  0.9776118988761340  0.2956884285714310   F   F   F
  0.2164178986751537  0.9925372994291237  0.2956884285714310   F   F   F
  0.1218905005726612  0.9900497990711870  0.1478442857142852   F   F   F
  0.1069651996991041  0.0422885995894120  0.1478442857142852   F   F   F
  0.1741292991696426  0.0572138993546929  0.1478442857142852   F   F   F
  0.2014924994709872  0.0447761008712604  0.2956884285714310   F   F   F
  0.1194029999464661  0.0820895998286915  0.2956884285714310   F   F   F
  0.1865672003970857  0.0970148992588378  0.2956884285714310   F   F   F
  0.0920398004949448  0.0945274010315487  0.1478442857142852   F   F   F
  0.0771144004409621  0.1467661997542677  0.1478442857142852   F   F   F
  0.1442786008915746  0.1616914991844141  0.1478442857142852   F   F   F
  0.1716418011929193  0.1492537007009744  0.2956884285714310   F   F   F
  0.0895522006883169  0.1865671999935472  0.2956884285714310   F   F   F
  0.1567163984894648  0.2014924988349165  0.2956884285714310   F   F   F
  0.0621890012367956  0.1990050011964044  0.1478442857142852   F   F   F
  0.0472636995134224  0.2512437989952119  0.1478442857142852   F   F   F
  0.1144278995136432  0.2661691995481945  0.1478442857142852   F   F   F
  0.1417909992852984  0.2537313002770603  0.2956884285714310   F   F   F
  0.0597014997607772  0.2910447992344913  0.2956884285714310   F   F   F
  0.1268657010612131  0.3059701013840552  0.2956884285714310   F   F   F
  0.0323383003092559  0.3034826004373485  0.1478442857142852   F   F   F
  0.0174129002552732  0.3557213991600676  0.1478442857142852   F   F   F
  0.0845771002554940  0.3706467997130503  0.1478442857142852   F   F   F
  0.1119403005568387  0.3582090012296177  0.2956884285714310   F   F   F
  0.0298507005026281  0.3955223993993471  0.2956884285714310   F   F   F
  0.0970149005028560  0.4104477999523297  0.2956884285714310   F   F   F
  0.0024875993817162  0.4079601996782927  0.1478442857142852   F   F   F
  0.9875622001775497  0.4601990011204293  0.1478442857142852   F   F   F
  0.0547263993279543  0.4751243989539944  0.1478442857142852   F   F   F
  0.0820895996292990  0.4626866004705619  0.2956884285714310   F   F   F
  0.0000000004249117  0.5000000013597088  0.2956884285714310   F   F   F
  0.0671641995753163  0.5149253991932738  0.2956884285714310   F   F   F
  0.0248756000698052  0.5796019991188501  0.1478442857142852   F   F   F
  0.0522388003711498  0.5671642006354176  0.2956884285714310   F   F   F
  0.0373134003171671  0.6194029993581296  0.2956884285714310   F   F   F
  0.9950248999920888  0.6840796010792189  0.1478442857142852   F   F   F
  0.0223880994436101  0.6716417998763546  0.2956884285714310   F   F   F
  0.0074627002394436  0.7238806013184984  0.2956884285714310   F   F   F
  0.9925373001854609  0.7761194000412104  0.2956884285714310   F   F   F
  0.2711443010774914  0.9676617003315968  0.1478442857142852   F   F   F
  0.3383085010777123  0.9825871008845866  0.1478442857142852   F   F   F
  0.3656715995491595  0.9701493000168711  0.2956884285714310   F   F   F
  0.2835821013248463  0.0074627005708763  0.2956884285714310   F   F   F
  0.3507463013250742  0.0223881011238660  0.2956884285714310   F   F   F
  0.2562188983740299  0.0199004984655460  0.1478442857142852   F   F   F
  0.2412934991698705  0.0721392999076826  0.1478442857142852   F   F   F
  0.3084576991700914  0.0870647004606724  0.1478442857142852   F   F   F
  0.3358208986216198  0.0746268992578081  0.2956884285714310   F   F   F
  0.2537312994172254  0.1119403001469621  0.2956884285714310   F   F   F
  0.3208954994174533  0.1268657006999518  0.2956884285714310   F   F   F
  0.2263682009457852  0.1243781010146776  0.1478442857142852   F   F   F
  0.2114428008918026  0.1766168997373967  0.1478442857142852   F   F   F
  0.2786070008920305  0.1915423002903864  0.1478442857142852   F   F   F
  0.3059700993634706  0.1791044994226638  0.2956884285714310   F   F   F
  0.2238806011391645  0.2164178999766762  0.2956884285714310   F   F   F
  0.2910448011393854  0.2313433005296659  0.2956884285714310   F   F   F
  0.1965173990381643  0.2288557005907634  0.1478442857142852   F   F   F
  0.1815919989841817  0.2810944993134825  0.1478442857142852   F   F   F
  0.2487561989844025  0.2960198998664652  0.1478442857142852   F   F   F
  0.2761193984359309  0.2835820986636080  0.2956884285714310   F   F   F
  0.1940299002116177  0.3208954992176203  0.2956884285714310   F   F   F
  0.2611939992317645  0.3358209001057517  0.2956884285714310   F   F   F
  0.1666667007600964  0.3333333004204775  0.1478442857142852   F   F   F
  0.1517413007061137  0.3855720991431966  0.1478442857142852   F   F   F
  0.2189055007063416  0.4004974996961863  0.1478442857142852   F   F   F
  0.2462687010076792  0.3880597012127467  0.2956884285714310   F   F   F
  0.1641791009534757  0.4253730993824760  0.2956884285714310   F   F   F
  0.2313433009536965  0.4402984999354658  0.2956884285714310   F   F   F
  0.1368158988524755  0.4378108999965633  0.1478442857142852   F   F   F
  0.1218905009975728  0.4900498004308957  0.1478442857142852   F   F   F
  0.1890546987987207  0.5049750992722650  0.1478442857142852   F   F   F
  0.2164178991000583  0.4925373007888325  0.2956884285714310   F   F   F
  0.1343284008757522  0.5298507013428448  0.2956884285714310   F   F   F
  0.2014924990460756  0.5447760995115516  0.2956884285714310   F   F   F
  0.1069652001240158  0.5422886009491208  0.1478442857142852   F   F   F
  0.0920398000700331  0.5945273996718399  0.1478442857142852   F   F   F
  0.1592040005206528  0.6094526991019862  0.1478442857142852   F   F   F
  0.1865672008219974  0.5970149006185466  0.2956884285714310   F   F   F
  0.1044776003173951  0.6343283999111193  0.2956884285714310   F   F   F
  0.1716418007680076  0.6492536993412656  0.2956884285714310   F   F   F
  0.0771144008658666  0.6467662011139765  0.1478442857142852   F   F   F
  0.0621890008118839  0.6990049998366956  0.1478442857142852   F   F   F
  0.1293532008121119  0.7139304003896783  0.1478442857142852   F   F   F
  0.1567163989143694  0.7014925001946324  0.2956884285714310   F   F   F
  0.0746268993898482  0.7388059991520635  0.2956884285714310   F   F   F
  0.1417909988603867  0.7537312989173444  0.2956884285714310   F   F   F
  0.0472636999383269  0.7512438003549207  0.1478442857142852   F   F   F
  0.0323382998843442  0.8034825990776397  0.1478442857142852   F   F   F
  0.0995024998845722  0.8184079996306224  0.1478442857142852   F   F   F
  0.1268657006363085  0.8059701000243464  0.2956884285714310   F   F   F
  0.0447761001317062  0.8432835993169192  0.2956884285714310   F   F   F
  0.1119403001319270  0.8582089998699018  0.2956884285714310   F   F   F
  0.0174129006801849  0.8557214005197764  0.1478442857142852   F   F   F
  0.0024875998066207  0.9079602010380015  0.1478442857142852   F   F   F
  0.0696517006264230  0.9228855997954781  0.1478442857142852   F   F   F
  0.0970149009277677  0.9104478013120456  0.2956884285714310   F   F   F
  0.0149254000539827  0.9477612012772809  0.2956884285714310   F   F   F
  0.4054726005482507  0.9975124006498746  0.1478442857142852   F   F   F
  0.4726368005484787  0.0124378012028572  0.1478442857142852   F   F   F
  0.5000000000000000  0.0000000000000000  0.2956884285714310   F   F   F
  0.4179104007956127  0.0373134008891540  0.2956884285714310   F   F   F
  0.4850745999460173  0.0522387987227191  0.2956884285714310   F   F   F
  0.3905472996746937  0.0497512011680996  0.1478442857142852   F   F   F
  0.3756218991703193  0.1019901010136550  0.1478442857142852   F   F   F
  0.4427860996209390  0.1169154004438013  0.1478442857142852   F   F   F
  0.4701492990724603  0.1044775992409441  0.2956884285714310   F   F   F
  0.3880596998680730  0.1417910001300982  0.2956884285714310   F   F   F
  0.4552238998682938  0.1567164006830808  0.2956884285714310   F   F   F
  0.3606964991163366  0.1542288997363741  0.1478442857142852   F   F   F
  0.3457710999121701  0.2064677011785108  0.1478442857142852   F   F   F
  0.4129353003627898  0.2213930006086571  0.1478442857142852   F   F   F
  0.4402984998143111  0.2089551994057999  0.2956884285714310   F   F   F
  0.3582090011396133  0.2462687010826485  0.2956884285714310   F   F   F
  0.4253731006101518  0.2611940008479365  0.2956884285714310   F   F   F
  0.3308458008382686  0.2587064995660882  0.1478442857142852   F   F   F
  0.3159203989846304  0.3109453004194549  0.1478442857142852   F   F   F
  0.3830845994352501  0.3258705998496012  0.1478442857142852   F   F   F
  0.4104477988867714  0.3134327986467440  0.2956884285714310   F   F   F
  0.3283581992319924  0.3507463006587344  0.2956884285714310   F   F   F
  0.3955223996826049  0.3656716000888807  0.2956884285714310   F   F   F
  0.3009949989306477  0.3631840991421740  0.1478442857142852   F   F   F
  0.2860695997264813  0.4154229005843106  0.1478442857142852   F   F   F
  0.3532337997267092  0.4303483011373004  0.1478442857142852   F   F   F
  0.3805969996286223  0.4179103988115997  0.2956884285714310   F   F   F
  0.2985075009539244  0.4552239004884484  0.2956884285714310   F   F   F
  0.3656715991242478  0.4701492986571552  0.2956884285714310   F   F   F
  0.2711443006525798  0.4676616989718880  0.1478442857142852   F   F   F
  0.2562188987989416  0.5199004998252548  0.1478442857142852   F   F   F
  0.3233831014486412  0.5348259009670144  0.1478442857142852   F   F   F
  0.3507463009001626  0.5223880997641572  0.2956884285714310   F   F   F
  0.2686566990463035  0.5597015000645342  0.2956884285714310   F   F   F
  0.3358208990465243  0.5746269006175240  0.2956884285714310   F   F   F
  0.2412934987449589  0.5721392985479739  0.1478442857142852   F   F   F
  0.2263682005208736  0.6243780996549688  0.1478442857142852   F   F   F
  0.2935322995410203  0.6393035005431003  0.1478442857142852   F   F   F
  0.3208954989925417  0.6268656993402359  0.2956884285714310   F   F   F
  0.2388060007682355  0.6641790998942483  0.2956884285714310   F   F   F
  0.3059700997883823  0.6791045007823797  0.2956884285714310   F   F   F
  0.2114428013167142  0.6766169010971055  0.1478442857142852   F   F   F
  0.1965173986132527  0.7288556992310546  0.1478442857142852   F   F   F
  0.2636816012629524  0.7437811003728143  0.1478442857142852   F   F   F
  0.2910448007144737  0.7313432991699571  0.2956884285714310   F   F   F
  0.2089551988606146  0.7686566994703341  0.2956884285714310   F   F   F
  0.2761193988608355  0.7835821000233238  0.2956884285714310   F   F   F
  0.1815919994090933  0.7810945006731913  0.1478442857142852   F   F   F
  0.1666667003351918  0.8333332990607687  0.1478442857142852   F   F   F
  0.2338307993553315  0.8482586999488930  0.1478442857142852   F   F   F
  0.2611939988068528  0.8358208987460358  0.2956884285714310   F   F   F
  0.1791045005825467  0.8731342993000482  0.2956884285714310   F   F   F
  0.2462687005827746  0.8880596998530379  0.2956884285714310   F   F   F
  0.1517413011310254  0.8855721005029054  0.1478442857142852   F   F   F
  0.1368158984275638  0.9378108986368545  0.1478442857142852   F   F   F
  0.2039801010772635  0.9527362997786142  0.1478442857142852   F   F   F
  0.2313433013786081  0.9402985012951746  0.2956884285714310   F   F   F
  0.5820895992043873  0.9626865991108460  0.2956884285714310   F   F   F
  0.6492536986749258  0.9776118988761340  0.2956884285714310   F   F   F
  0.5547263997528660  0.9751244003137032  0.1478442857142852   F   F   F
  0.5398009996988833  0.0273631990364223  0.1478442857142852   F   F   F
  0.6069651996991041  0.0422885995894120  0.1478442857142852   F   F   F
  0.6343284004508405  0.0298506999831289  0.2956884285714310   F   F   F
  0.5522387999462381  0.0671641992757017  0.2956884285714310   F   F   F
  0.6194029999464661  0.0820895998286915  0.2956884285714310   F   F   F
  0.5248756004947168  0.0796020004785589  0.1478442857142852   F   F   F
  0.5099502004407341  0.1318407992012780  0.1478442857142852   F   F   F
  0.5771144004409621  0.1467661997542677  0.1478442857142852   F   F   F
  0.6044776007422996  0.1343284012708281  0.2956884285714310   F   F   F
  0.5223880998685217  0.1716418012360705  0.2956884285714310   F   F   F
  0.5895522006883169  0.1865671999935472  0.2956884285714310   F   F   F
  0.4950248995671771  0.1840795997195031  0.1478442857142852   F   F   F
  0.4800995003630106  0.2363184011616468  0.1478442857142852   F   F   F
  0.5472636995134224  0.2512437989952119  0.1478442857142852   F   F   F
  0.5746268998147599  0.2388060005117723  0.2956884285714310   F   F   F
  0.4925372997605564  0.2761193986815016  0.2956884285714310   F   F   F
  0.5597014997607772  0.2910447992344913  0.2956884285714310   F   F   F
  0.4651741003090279  0.2885571998843588  0.1478442857142852   F   F   F
  0.4502487011048686  0.3407960013265026  0.1478442857142852   F   F   F
  0.5174129002552732  0.3557213991600676  0.1478442857142852   F   F   F
  0.5447761005566107  0.3432836006766280  0.2956884285714310   F   F   F
  0.4626865996828329  0.3805970006418704  0.2956884285714310   F   F   F
  0.5298507005026281  0.3955223993993471  0.2956884285714310   F   F   F
  0.4353233993814882  0.3930347991253029  0.1478442857142852   F   F   F
  0.4203980001773289  0.4452736005674467  0.1478442857142852   F   F   F
  0.4875622001775497  0.4601990011204293  0.1478442857142852   F   F   F
  0.5149253996290710  0.4477611999175721  0.2956884285714310   F   F   F
  0.4328358004246837  0.4850746008067262  0.2956884285714310   F   F   F
  0.5000000004249117  0.5000000013597088  0.2956884285714310   F   F   F
  0.4054726001233462  0.4975123992901587  0.1478442857142852   F   F   F
  0.3905472992497820  0.5497511998083837  0.1478442857142852   F   F   F
  0.4577114009194005  0.5646766012852851  0.1478442857142852   F   F   F
  0.4850746003709290  0.5522388000824279  0.2956884285714310   F   F   F
  0.4029850994971440  0.5895522000476703  0.2956884285714310   F   F   F
  0.4701492994973719  0.6044776006006529  0.2956884285714310   F   F   F
  0.3756218987454076  0.6019900996539462  0.1478442857142852   F   F   F
  0.3606964995412412  0.6542289010960829  0.1478442857142852   F   F   F
  0.4278606999918608  0.6691542005262292  0.1478442857142852   F   F   F
  0.4552238994433893  0.6567163993233720  0.2956884285714310   F   F   F
  0.3731343002389949  0.6940298002125260  0.2956884285714310   F   F   F
  0.4402985002392228  0.7089552007655087  0.2956884285714310   F   F   F
  0.3457710994872585  0.7064676998188020  0.1478442857142852   F   F   F
  0.3308458012631803  0.7587065009257969  0.1478442857142852   F   F   F
  0.3980099007337188  0.7736318006910849  0.1478442857142852   F   F   F
  0.4253731001852401  0.7611939994882277  0.2956884285714310   F   F   F
  0.3432836015105352  0.7985075011650835  0.2956884285714310   F   F   F
  0.4104477993116831  0.8134328000064528  0.2956884285714310   F   F   F
  0.3159203985597188  0.8109452990597461  0.1478442857142852   F   F   F
  0.3009949993555594  0.8631841005018828  0.1478442857142852   F   F   F
  0.3681591993557802  0.8781095010548725  0.1478442857142852   F   F   F
  0.3955223992577004  0.8656715987291719  0.2956884285714310   F   F   F
  0.3134327996029143  0.9029851007411622  0.2956884285714310   F   F   F
  0.3805970000535339  0.9179104001713085  0.2956884285714310   F   F   F
  0.2860695993015767  0.9154228992246018  0.1478442857142852   F   F   F
  0.7711443010774914  0.9676617003315968  0.1478442857142852   F   F   F
  0.7164178986751537  0.9925372994291237  0.2956884285714310   F   F   F
  0.7835821013248463  0.0074627005708763  0.2956884285714310   F   F   F
  0.6890546992236253  0.0049751006319809  0.1478442857142852   F   F   F
  0.6741292991696426  0.0572138993546929  0.1478442857142852   F   F   F
  0.7412934991698705  0.0721392999076826  0.1478442857142852   F   F   F
  0.7686566986213919  0.0597014987048254  0.2956884285714310   F   F   F
  0.6865672003970857  0.0970148992588378  0.2956884285714310   F   F   F
  0.7537312994172254  0.1119403001469621  0.2956884285714310   F   F   F
  0.6592040009455644  0.1094527004616950  0.1478442857142852   F   F   F
  0.6442786008915746  0.1616914991844141  0.1478442857142852   F   F   F
  0.7114428008918026  0.1766168997373967  0.1478442857142852   F   F   F
  0.7388060011931472  0.1641791012539642  0.2956884285714310   F   F   F
  0.6567163984894648  0.2014924988349165  0.2956884285714310   F   F   F
  0.7238806011391645  0.2164178999766762  0.2956884285714310   F   F   F
  0.6293531990379364  0.2139303000377808  0.1478442857142852   F   F   F
  0.6144278995136432  0.2661691995481945  0.1478442857142852   F   F   F
  0.6815919989841817  0.2810944993134825  0.1478442857142852   F   F   F
  0.7089551992855263  0.2686567008300429  0.2956884285714310   F   F   F
  0.6268657010612131  0.3059701013840552  0.2956884285714310   F   F   F
  0.6940299002116177  0.3208954992176203  0.2956884285714310   F   F   F
  0.5995025003094767  0.3184080009903312  0.1478442857142852   F   F   F
  0.5845771002554940  0.3706467997130503  0.1478442857142852   F   F   F
  0.6517413007061137  0.3855720991431966  0.1478442857142852   F   F   F
  0.6791045010074583  0.3731343006597641  0.2956884285714310   F   F   F
  0.5970149005028560  0.4104477999523297  0.2956884285714310   F   F   F
  0.6641791009534757  0.4253730993824760  0.2956884285714310   F   F   F
  0.5696517010513347  0.4228856011551940  0.1478442857142852   F   F   F
  0.5547263993279543  0.4751243989539944  0.1478442857142852   F   F   F
  0.6218905009975728  0.4900498004308957  0.1478442857142852   F   F   F
  0.6492536990998374  0.4776119002358428  0.2956884285714310   F   F   F
  0.5671641995753163  0.5149253991932738  0.2956884285714310   F   F   F
  0.6343284008757522  0.5298507013428448  0.2956884285714310   F   F   F
  0.5398010001237949  0.5273632003961310  0.1478442857142852   F   F   F
  0.5248756000698052  0.5796019991188501  0.1478442857142852   F   F   F
  0.5920398000700331  0.5945273996718399  0.1478442857142852   F   F   F
  0.6194030003713777  0.5820896011884003  0.2956884285714310   F   F   F
  0.5373134003171671  0.6194029993581296  0.2956884285714310   F   F   F
  0.6044776003173951  0.6343283999111193  0.2956884285714310   F   F   F
  0.5099502008656458  0.6318408005609868  0.1478442857142852   F   F   F
  0.4950248999920888  0.6840796010792189  0.1478442857142852   F   F   F
  0.5621890008118839  0.6990049998366956  0.1478442857142852   F   F   F
  0.5895522011132286  0.6865672013532560  0.2956884285714310   F   F   F
  0.5074627002394436  0.7238806013184984  0.2956884285714310   F   F   F
  0.5746268993898482  0.7388059991520635  0.2956884285714310   F   F   F
  0.4800994999381061  0.7363183998019309  0.1478442857142852   F   F   F
  0.4651741007339396  0.7885572012440747  0.1478442857142852   F   F   F
  0.5323382998843442  0.8034825990776397  0.1478442857142852   F   F   F
  0.5597015001856889  0.7910448005942001  0.2956884285714310   F   F   F
  0.4776119001314783  0.8283581987639295  0.2956884285714310   F   F   F
  0.5447761001317062  0.8432835993169192  0.2956884285714310   F   F   F
  0.4502487006799569  0.8407959999667867  0.1478442857142852   F   F   F
  0.4353233998063999  0.8930348004850117  0.1478442857142852   F   F   F
  0.5024875998066207  0.9079602010380015  0.1478442857142852   F   F   F
  0.5298507009275397  0.8955224007590559  0.2956884285714310   F   F   F
  0.4477612000537619  0.9328358007242983  0.2956884285714310   F   F   F
  0.5149254000539827  0.9477612012772809  0.2956884285714310   F   F   F
  0.4203979997524172  0.9452735992077308  0.1478442857142852   F   F   F
  0.8383085010777123  0.9825871008845866  0.1478442857142852   F   F   F
  0.9054726005482507  0.9975124006498746  0.1478442857142852   F   F   F
  0.9328357999997721  0.9850745994470103  0.2956884285714310   F   F   F
  0.8507463013250742  0.0223881011238660  0.2956884285714310   F   F   F
  0.9179104007956127  0.0373134008891540  0.2956884285714310   F   F   F
  0.8233831010237296  0.0348258996073056  0.1478442857142852   F   F   F
  0.8084576991700914  0.0870647004606724  0.1478442857142852   F   F   F
  0.8756218991703193  0.1019901010136550  0.1478442857142852   F   F   F
  0.9029850990722323  0.0895521986879544  0.2956884285714310   F   F   F
  0.8208954994174533  0.1268657006999518  0.2956884285714310   F   F   F
  0.8880596998680730  0.1417910001300982  0.2956884285714310   F   F   F
  0.7935322991161087  0.1393034991833844  0.1478442857142852   F   F   F
  0.7786070008920305  0.1915423002903864  0.1478442857142852   F   F   F
  0.8457710999121701  0.2064677011785108  0.1478442857142852   F   F   F
  0.8731342993636915  0.1940298999756536  0.2956884285714310   F   F   F
  0.7910448011393854  0.2313433005296659  0.2956884285714310   F   F   F
  0.8582090011396133  0.2462687010826485  0.2956884285714310   F   F   F
  0.7636816008380407  0.2437810990130984  0.1478442857142852   F   F   F
  0.7487561989844025  0.2960198998664652  0.1478442857142852   F   F   F
  0.8159203989846304  0.3109453004194549  0.1478442857142852   F   F   F
  0.8432836010856306  0.2985074998053676  0.2956884285714310   F   F   F
  0.7611939992317645  0.3358209001057517  0.2956884285714310   F   F   F
  0.8283581992319924  0.3507463006587344  0.2956884285714310   F   F   F
  0.7338307989304198  0.3482586985891842  0.1478442857142852   F   F   F
  0.7189055007063416  0.4004974996961863  0.1478442857142852   F   F   F
  0.7860695997264813  0.4154229005843106  0.1478442857142852   F   F   F
  0.8134327991780026  0.4029850993814534  0.2956884285714310   F   F   F
  0.7313433009536965  0.4402984999354658  0.2956884285714310   F   F   F
  0.7985075009539244  0.4552239004884484  0.2956884285714310   F   F   F
  0.7039801015021752  0.4527363011383230  0.1478442857142852   F   F   F
  0.6890546987987207  0.5049750992722650  0.1478442857142852   F   F   F
  0.7562188987989416  0.5199004998252548  0.1478442857142852   F   F   F
  0.7835821008999417  0.5074626992111675  0.2956884285714310   F   F   F
  0.7014924990460756  0.5447760995115516  0.2956884285714310   F   F   F
  0.7686566990463035  0.5597015000645342  0.2956884285714310   F   F   F
  0.6741292995945543  0.5572139007144088  0.1478442857142852   F   F   F
  0.6592040005206528  0.6094526991019862  0.1478442857142852   F   F   F
  0.7263682005208736  0.6243780996549688  0.1478442857142852   F   F   F
  0.7537312989923208  0.6119402987872533  0.2956884285714310   F   F   F
  0.6716418007680076  0.6492536993412656  0.2956884285714310   F   F   F
  0.7388060007682355  0.6641790998942483  0.2956884285714310   F   F   F
  0.6442786013164863  0.6616915005441228  0.1478442857142852   F   F   F
  0.6293532008121119  0.7139304003896783  0.1478442857142852   F   F   F
  0.6965173986132527  0.7288556992310546  0.1478442857142852   F   F   F
  0.7238806015640691  0.7164179013363920  0.2956884285714310   F   F   F
  0.6417909988603867  0.7537312989173444  0.2956884285714310   F   F   F
  0.7089551988606146  0.7686566994703341  0.2956884285714310   F   F   F
  0.6144278999385548  0.7661692009079033  0.1478442857142852   F   F   F
  0.5995024998845722  0.8184079996306224  0.1478442857142852   F   F   F
  0.6666667003351918  0.8333332990607687  0.1478442857142852   F   F   F
  0.6940299006365294  0.8208955005773362  0.2956884285714310   F   F   F
  0.6119403001319270  0.8582089998699018  0.2956884285714310   F   F   F
  0.6791045005825467  0.8731342993000482  0.2956884285714310   F   F   F
  0.5845771006804057  0.8706468010727662  0.1478442857142852   F   F   F
  0.5696517006264230  0.9228855997954781  0.1478442857142852   F   F   F
  0.6368158984275638  0.9378108986368545  0.1478442857142852   F   F   F
  0.6641791013783802  0.9253731007421919  0.2956884285714310   F   F   F
  0.9726368005484787  0.0124378012028572  0.1478442857142852   F   F   F
  0.9850745999460173  0.0522387987227191  0.2956884285714310   F   F   F
  0.9577114004944960  0.0646765999255763  0.1478442857142852   F   F   F
  0.9427860996209390  0.1169154004438013  0.1478442857142852   F   F   F
  0.9552238998682938  0.1567164006830808  0.2956884285714310   F   F   F
  0.9278606995669563  0.1691541991665204  0.1478442857142852   F   F   F
  0.9129353003627898  0.2213930006086571  0.1478442857142852   F   F   F
  0.9800995003630106  0.2363184011616468  0.1478442857142852   F   F   F
  0.9253731006101518  0.2611940008479365  0.2956884285714310   F   F   F
  0.8980099003088071  0.2736317993313762  0.1478442857142852   F   F   F
  0.8830845994352501  0.3258705998496012  0.1478442857142852   F   F   F
  0.9502487011048686  0.3407960013265026  0.1478442857142852   F   F   F
  0.9776119005563899  0.3283582001236454  0.2956884285714310   F   F   F
  0.8955223996826049  0.3656716000888807  0.2956884285714310   F   F   F
  0.9626865996828329  0.3805970006418704  0.2956884285714310   F   F   F
  0.8681591989308686  0.3781094996951566  0.1478442857142852   F   F   F
  0.8532337997267092  0.4303483011373004  0.1478442857142852   F   F   F
  0.9203980001773289  0.4452736005674467  0.1478442857142852   F   F   F
  0.9477611996288502  0.4328357993645824  0.2956884285714310   F   F   F
  0.8656715991242478  0.4701492986571552  0.2956884285714310   F   F   F
  0.9328358004246837  0.4850746008067262  0.2956884285714310   F   F   F
  0.8383085006528077  0.4825870995248707  0.1478442857142852   F   F   F
  0.8233831014486412  0.5348259009670144  0.1478442857142852   F   F   F
  0.8905472992497820  0.5497511998083837  0.1478442857142852   F   F   F
  0.9179104003707010  0.5373133995294381  0.2956884285714310   F   F   F
  0.8358208990465243  0.5746269006175240  0.2956884285714310   F   F   F
  0.9029850994971440  0.5895522000476703  0.2956884285714310   F   F   F
  0.8084576987451868  0.5870646991009565  0.1478442857142852   F   F   F
  0.7935322995410203  0.6393035005431003  0.1478442857142852   F   F   F
  0.8606964995412412  0.6542289010960829  0.1478442857142852   F   F   F
  0.8880596994431613  0.6417909987703823  0.2956884285714310   F   F   F
  0.8059700997883823  0.6791045007823797  0.2956884285714310   F   F   F
  0.8731343002389949  0.6940298002125260  0.2956884285714310   F   F   F
  0.7786070004671188  0.6915422989306705  0.1478442857142852   F   F   F
  0.7636816012629524  0.7437811003728143  0.1478442857142852   F   F   F
  0.8308458012631803  0.7587065009257969  0.1478442857142852   F   F   F
  0.8582090007147016  0.7462686997229397  0.2956884285714310   F   F   F
  0.7761193988608355  0.7835821000233238  0.2956884285714310   F   F   F
  0.8432836015105352  0.7985075011650835  0.2956884285714310   F   F   F
  0.7487561985594979  0.7960198985067564  0.1478442857142852   F   F   F
  0.7338307993553315  0.8482586999488930  0.1478442857142852   F   F   F
  0.8009949993555594  0.8631841005018828  0.1478442857142852   F   F   F
  0.8283581988070807  0.8507462992990256  0.2956884285714310   F   F   F
  0.7462687005827746  0.8880596998530379  0.2956884285714310   F   F   F
  0.8134327996029143  0.9029851007411622  0.2956884285714310   F   F   F
  0.7189055011312462  0.9004975010558951  0.1478442857142852   F   F   F
  0.7039801010772635  0.9527362997786142  0.1478442857142852   F   F   F
  0.7985075005290128  0.9552238991287396  0.2956884285714310   F   F   F
  0.9726368001235670  0.5124377998431484  0.1478442857142852   F   F   F
  0.9577114009194005  0.5646766012852851  0.1478442857142852   F   F   F
  0.9701492994973719  0.6044776006006529  0.2956884285714310   F   F   F
  0.9427860991960273  0.6169153990840925  0.1478442857142852   F   F   F
  0.9278606999918608  0.6691542005262292  0.1478442857142852   F   F   F
  0.9402985002392228  0.7089552007655087  0.2956884285714310   F   F   F
  0.9129352999378781  0.7213929992489483  0.1478442857142852   F   F   F
  0.8980099007337188  0.7736318006910849  0.1478442857142852   F   F   F
  0.9651741007339396  0.7885572012440747  0.1478442857142852   F   F   F
  0.9104477993116831  0.8134328000064528  0.2956884285714310   F   F   F
  0.9776119001314783  0.8283581987639295  0.2956884285714310   F   F   F
  0.8830845998601617  0.8258706012093100  0.1478442857142852   F   F   F
  0.8681591993557802  0.8781095010548725  0.1478442857142852   F   F   F
  0.9353233998063999  0.8930348004850117  0.1478442857142852   F   F   F
  0.9626865992579212  0.8805969992821545  0.2956884285714310   F   F   F
  0.8805970000535339  0.9179104001713085  0.2956884285714310   F   F   F
  0.9477612000537619  0.9328358007242983  0.2956884285714310   F   F   F
  0.8532337993017975  0.9303482997775845  0.1478442857142852   F   F   F
  0.0547263997528660  0.9751244003137032  0.1478442857142852   F   F   F
  0.0000000000000000  0.0000000000000000  0.2956884285714310   F   F   F
  0.0248756004947168  0.0796020004785589  0.1478442857142852   F   F   F
  0.9950248995671771  0.1840795997195031  0.1478442857142852   F   F   F