
  1.000000
   14.3500003814999992    0.0000000000000000    0.0000000000000000
   -7.1750018455999998   12.4274639192999992    0.0000000000000000
    0.0000000000000000    0.0000000000000000   43.6500015259000023
   In    O
   96  144
Direct
  0.8931373950000000  0.3215600550000000  0.0286436532966168
  0.6784399749999999  0.5715773110000000  0.0286436532966168
  0.4284226300000000  0.1068626790000000  0.0286436532966168
  0.8931762580000000  0.8215801120000000  0.0286441180965761
  0.1784198730000000  0.0715962130000000  0.0286441180965761
  0.9284037950000001  0.1068237130000000  0.0286441180965761
  0.6666666870000000  0.3333333430000000  0.0333333344867504
  0.6666666870000000  0.8333333130000000  0.0333333344867504
  0.1666666570000000  0.3333333730000000  0.0333333344867504
  0.1666666569999999  0.8333333130000000  0.0333333344867504
  0.4401569960000000  0.8450865150000000  0.0380225506769247
  0.1549134110000000  0.5950705410000000  0.0380225506769247
  0.4049294890000000  0.5598430040000000  0.0380225506769247
  0.4401959180000000  0.3451066910000000  0.0380230154768841
  0.6548933389999999  0.0950893760000000  0.0380230154768841
  0.9049106239999999  0.5598040820000000  0.0380230154768841
  0.2264706940000000  0.9882267120000000  0.0953103100701186
  0.0117733060000000  0.2382439970000000  0.0953103100701186
  0.7617560029999999  0.7735292910000000  0.0953103100701186
  0.2265096460000000  0.4882467990000000  0.0953107750700780
  0.5117532010000000  0.7382628320000000  0.0953107750700780
  0.2617371380000000  0.7734903690000000  0.0953107750700780
  0.0000000000000000  0.0000000000000000  0.0999999912602523
  0.0000000000000000  0.5000000000000000  0.0999999912602523
  0.5000000000000000  0.0000000000000000  0.0999999912602523
  0.5000000000000000  0.5000000000000000  0.0999999912602523
  0.7734903690000000  0.5117532010000000  0.1046892074504266
  0.4882467990000000  0.2617371380000000  0.1046892074504266
  0.7382628320000000  0.2265096460000000  0.1046892074504266
  0.7735292910000000  0.0117733060000000  0.1046896724503860
  0.9882267119999999  0.7617560029999999  0.1046896724503860
  0.2382439970000000  0.2264706940000000  0.1046896724503860
  0.5598040220000000  0.6548933390000000  0.1619769670436205
  0.3451066610000000  0.9049106840000000  0.1619769670436205
  0.0950893760000000  0.4401959180000000  0.1619769670436205
  0.5598430040000000  0.1549134400000000  0.1619774200435809
  0.8450865150000000  0.4049295190000000  0.1619774200435809
  0.5950705410000001  0.4401570260000000  0.1619774200435809
  0.3333333729999999  0.1666666570000000  0.1666666362337552
  0.8333333130000000  0.6666666870000000  0.1666666362337552
  0.8333333130000000  0.1666666570000000  0.1666666362337552
  0.3333333430000000  0.6666666870000000  0.1666666480337542
  0.1068237130000000  0.1784198730000000  0.1713558762239275
  0.8215801120000000  0.9284038539999999  0.1713558762239275
  0.0715962130000000  0.8931763169999999  0.1713558762239275
  0.1068626640000000  0.6784399749999999  0.1713563412238868
  0.3215600550000000  0.4284226300000000  0.1713563412238868
  0.5715773109999999  0.8931373949999999  0.1713563412238868
  0.8931373950000000  0.3215600550000000  0.2286436560000000
  0.6784399749999999  0.5715773110000000  0.2286436560000000
  0.4284226300000000  0.1068626790000000  0.2286436560000000
  0.8931762580000000  0.8215801120000000  0.2286441180000000
  0.1784198730000000  0.0715962130000000  0.2286441180000000
  0.9284037950000001  0.1068237130000000  0.2286441180000000
  0.6666666870000000  0.3333333430000000  0.2333333340000000
  0.6666666870000000  0.8333333130000000  0.2333333340000000
  0.1666666570000000  0.3333333730000000  0.2333333340000000
  0.1666666569999999  0.8333333130000000  0.2333333340000000
  0.4401569960000000  0.8450865150000000  0.2380225510000000
  0.1549134110000000  0.5950705410000000  0.2380225510000000
  0.4049294890000000  0.5598430040000000  0.2380225510000000
  0.4401959180000000  0.3451066910000000  0.2380230130000000
  0.6548933389999999  0.0950893760000000  0.2380230130000000
  0.9049106239999999  0.5598040820000000  0.2380230130000000
  0.0129079720000000  0.2398212110000000  0.2952893080000000
  0.2268985210000000  0.9870737199999999  0.2952898440000000
  0.7601335640000000  0.7730603810000000  0.2952949109999999
  0.5106587410000000  0.7362070080000001  0.2955432240000000
  0.2637935880000000  0.7744748000000000  0.2955473960000000
  0.2255229500000000  0.4893287119999999  0.2955575590000000
  0.9999932649999999  0.0000000000000000  0.2999025880000000
  0.4971964060000000  0.9983841780000000  0.2999117970000000
  0.0016021600000000  0.4988147320000000  0.2999137040000000
  0.5011487010000000  0.5027898550000000  0.2999201120000000
  0.4885017870000000  0.2648893300000000  0.3046073909999999
  0.7350960970000000  0.2236251240000000  0.3046112060000000
  0.7763161660000000  0.5114518400000000  0.3046189839999999
  0.9885065560000000  0.7614071370000000  0.3050335050000000
  0.7729021909999999  0.0115059640000000  0.3050367530000000
  0.2386035770000000  0.2271190580000000  0.3050417599999999
  0.8474307059999999  0.4005276560000000  0.3598101740000000
  0.5994351510000000  0.4469618200000000  0.3598108290000000
  0.5529794689999999  0.1524991540000000  0.3598119620000000
  0.3460158999999999  0.9047176839999999  0.3648103770000000
  0.0952419640000000  0.4413028960000000  0.3648251000000000
  0.5585978029999999  0.6539350750000000  0.3648481669999999
  0.8456537130000000  0.1707433160000000  0.3654909430000000
  0.3250213270000000  0.1542575960000000  0.3655027149999999
  0.8292203549999999  0.6749936340000000  0.3655063809999999
  0.5684779290000002  0.8853551750000000  0.3684808910000000
  0.1146018059999999  0.6830943229999998  0.3684833049999999
  0.3168090880000000  0.4314964119999999  0.3684841389999999
  0.0740245879999999  0.8972052929999998  0.3712948860000000
  0.8231710200000000  0.9259535670000000  0.3712996540000000
  0.3333217199999999  0.6666715149999999  0.3713005480000000
  0.1027754550000000  0.1768276540000000  0.3713051970000000
  0.5858685969999999  0.4068772490000000  0.0097869753446430
  0.5931227210000000  0.1789913180000000  0.0097869753446430
  0.8210086230000000  0.4141314030000000  0.0097869753446430
  0.8504774570000000  0.6567664740000000  0.0156806262295527
  0.3432335260000000  0.1937110280000000  0.0156806262295527
  0.8062889579999999  0.1495225430000000  0.0156806262295527
  0.0612814390000000  0.6666621570000000  0.0196270656846438
  0.3333378730000000  0.3946192860000000  0.0196270656846438
  0.6053807140000000  0.9387185570000000  0.0196270656846438
  0.8357397320000000  0.9363355639999998  0.0215607237156470
  0.0636644360000000  0.8994041680000000  0.0215607237156470
  0.1005958240000000  0.1642602530000000  0.0215607237156470
  0.4975935820000000  0.7303311230000000  0.0451059332578549
  0.2696689370000001  0.7672624590000000  0.0451059332578549
  0.2327375410000000  0.5024063590000000  0.0451059332578549
  0.2720519010000000  0.0000045540000000  0.0470395910888581
  0.9999954700000000  0.2720473410000000  0.0470395910888581
  0.7279526589999998  0.7279481290000001  0.0470395910888581
  0.4828558270000000  0.0099002860000000  0.0509860291439493
  0.9900997880000000  0.4729556140000000  0.0509860291439493
  0.5270443560000000  0.5171440840000000  0.0509860291439493
  0.7474647159999999  0.2597894670000000  0.0568796824288588
  0.7402105930000000  0.4876753090000000  0.0568796824288588
  0.5123246910000000  0.2525353130000000  0.0568796824288588
  0.9192019699999999  0.0735439140000000  0.0764536313181449
  0.9264560940000000  0.8456580040000000  0.0764536313181449
  0.1543419810000000  0.0807980750000000  0.0764536313181449
  0.1838108300000000  0.3234331010000000  0.0823472964030534
  0.6765668989999999  0.8603776689999999  0.0823472964030534
  0.1396222860000000  0.8161891700000000  0.0823472964030534
  0.3946148159999999  0.3333287540000000  0.0862937314581449
  0.6666712159999999  0.0612860430000000  0.0862937314581449
  0.9387140269999998  0.6053851840000000  0.0862937314581449
  0.1690731200000000  0.6030021910000000  0.0882273894891481
  0.3969977800000000  0.5660709140000000  0.0882273894891481
  0.4339290860000000  0.8309268949999999  0.0882273894891481
  0.8309268949999999  0.3969977800000000  0.1117725870313570
  0.6030021909999999  0.4339290860000000  0.1117725870313570
  0.5660709140000000  0.1690731200000000  0.1117725870313570
  0.6053851840000000  0.6666712159999999  0.1137062450623602
  0.3333287540000001  0.9387139680000000  0.1137062450623602
  0.0612860430000000  0.3946148159999999  0.1137062450623602
  0.8161891699999999  0.6765668990000000  0.1176527039174496
  0.3234331009999999  0.1396222710000000  0.1176527039174496
  0.8603777289999999  0.1838108300000000  0.1176527039174496
  0.0807980670000000  0.9264560940000000  0.1235463512023597
  0.0735439060000000  0.1543419660000000  0.1235463512023597
  0.8456580640000000  0.9192019700000000  0.1235463512023597
  0.2525353130000000  0.7402105929999999  0.1431203000916458
  0.2597894670000000  0.5123246910000000  0.1431203000916458
  0.4876753089999999  0.7474647159999999  0.1431203000916458
  0.5171440840000000  0.9900997880000000  0.1490139473765558
  0.0099002860000000  0.5270443560000000  0.1490139473765558
  0.4729556140000000  0.4828558270000000  0.1490139473765558
  0.7279481290000001  0.9999954700000000  0.1529603944316463
  0.0000045540000000  0.7279526589999999  0.1529603944316463
  0.2720473410000000  0.2720519010000000  0.1529603944316463
  0.5024063590000000  0.2696689370000000  0.1548940522626494
  0.7303311229999999  0.2327375410000000  0.1548940522626494
  0.7672624589999999  0.4975935820000000  0.1548940522626494
  0.1642602530000000  0.0636644360000000  0.1784392440048589
  0.9363355640000000  0.1005958240000000  0.1784392440048589
  0.8994042280000001  0.8357397320000000  0.1784392440048589
  0.9387185569999998  0.3333378730000000  0.1803729018358621
  0.6666621569999999  0.6053806540000000  0.1803729018358621
  0.3946192860000000  0.0612814390000000  0.1803729018358621
  0.1495225430000000  0.3432335260000000  0.1843193726909505
  0.6567664740000000  0.8062889580000000  0.1843193726909505
  0.1937110870000000  0.8504774569999999  0.1843193726909505
  0.4141314030000000  0.5931227210000000  0.1902130199758605
  0.4068772490000000  0.8210086230000000  0.1902130199758605
  0.1789913770000000  0.5858685970000000  0.1902130199758605
  0.5858685969999999  0.4068772490000000  0.2097869810000000
  0.5931227210000000  0.1789913180000000  0.2097869810000000
  0.8210086230000000  0.4141314030000000  0.2097869810000000
  0.8504774570000000  0.6567664740000000  0.2156806290000000
  0.3432335260000000  0.1937110280000000  0.2156806290000000
  0.8062889579999999  0.1495225430000000  0.2156806290000000
  0.0612814430000000  0.6666621570000000  0.2196270670000000
  0.3333378730000000  0.3946192860000000  0.2196270670000000
  0.6053807140000000  0.9387185570000000  0.2196270670000000
  0.8357397320000000  0.9363355639999998  0.2215607320000000
  0.0636644360000000  0.8994042279999999  0.2215607320000000
  0.1005958320000000  0.1642602530000000  0.2215607320000000
  0.4975935820000000  0.7303311230000000  0.2451059370000000
  0.2696689370000001  0.7672624590000000  0.2451059370000000
  0.2327375410000000  0.5024063590000000  0.2451059370000000
  0.2720519010000000  0.0000045360000000  0.2470396010000000
  0.9999954700000000  0.2720473410000000  0.2470396010000000
  0.7279526589999998  0.7279481290000001  0.2470396010000000
  0.4828558270000000  0.0099003090000000  0.2509860400000000
  0.9900997880000000  0.4729556140000000  0.2509860400000000
  0.5270443560000000  0.5171440840000000  0.2509860400000000
  0.7474647159999999  0.2597894670000000  0.2568796870000000
  0.7402105930000000  0.4876753090000000  0.2568796870000000
  0.5123246910000000  0.2525353130000000  0.2568796870000000
  0.9190599320000001  0.0741187330000000  0.2764917610000000
  0.1550498010000000  0.0809400080000000  0.2764952180000000
  0.9258692859999998  0.8449352379999999  0.2764984370000000
  0.1842359900000000  0.3231272700000000  0.2823953030000000
  0.6768739219999999  0.8611115219999999  0.2823965550000000
  0.1388719080000000  0.8157554270000000  0.2823965850000000
  0.6652715799999999  0.0607658770000000  0.2866568270000000
  0.9392123820000000  0.6044922470000000  0.2866593900000000
  0.3955036100000000  0.3347225190000000  0.2866600750000000
  0.4352078140000000  0.8312658669999999  0.2880473140000000
  0.1687112000000000  0.6039389370000000  0.2880475820000000
  0.3960327799999999  0.5647745129999999  0.2880478200000000
  0.5651336310000000  0.1720172170000000  0.3112149240000000
  0.8279648420000000  0.3931088450000000  0.3112167420000000
  0.6068664790000000  0.4348627919999999  0.3112221359999999
  0.0600760210000000  0.3933648770000000  0.3142160480000000
  0.3332501050000000  0.9399019479999999  0.3142170910000000
  0.6065937880000001  0.6667250990000000  0.3142244220000000
  0.8593070510000000  0.1847366990000000  0.3170356450000000
  0.3254285159999999  0.1406893430000000  0.3170410690000000
  0.8152415160000001  0.6745729450000000  0.3170440500000000
  0.0735329090000000  0.1543482540000000  0.3234483300000000
  0.8456476929999999  0.9191830159999999  0.3234503870000000
  0.0807914880000000  0.9264514450000000  0.3234522040000000
  0.2597702150000001  0.7439650300000000  0.3428293470000000
  0.2559944990000000  0.5158285500000001  0.3428370059999999
  0.4841144380000000  0.7401515840000000  0.3428418340000000
  0.0082315040000000  0.5274406080000000  0.3484102190000000
  0.5191498989999999  0.9917284250000000  0.3484123950000000
  0.4725296800000000  0.4808146660000000  0.3484190699999999
  0.2760071460000000  0.2693827150000000  0.3544077580000000
  0.7306192520000000  0.0066406650000000  0.3544091880000000
  0.9933565860000000  0.7239664199999999  0.3544119000000000
  0.7230353950000000  0.2280087320000000  0.3583210999999999
  0.7719588280000000  0.4950535600000000  0.3583227100000000
  0.5049415830000000  0.2769464550000000  0.3583262560000000
  0.9319627880000001  0.3312098980000000  0.3797529940000000
  0.3991739150000000  0.0679931490000000  0.3797625299999999
  0.6687743070000001  0.6007691620000000  0.3797671200000000
  0.9332155590000000  0.0935540270000000  0.3809494970000000
  0.1602663100000000  0.0667296650000000  0.3809526559999999
  0.9064615369999999  0.8397151829999999  0.3809527460000000
  0.1858309659999999  0.8480870129999999  0.3829108770000000
  0.6622665520000000  0.8141721489999999  0.3829111160000000
  0.1518674640000000  0.3377258780000000  0.3829167490000000
  0.4177885060000000  0.8275401000000000  0.3903475700000000
  0.1724285630000000  0.5902827380000000  0.3903512360000000
  0.4096388220000000  0.5821784730000000  0.3903640810000000
