rutile-1x1                
  1.000000
    6.4969000815999998    0.0000000000000000    0.0000000000000000
    0.0000000000000000    2.9590001105999999    0.0000000000000000
    0.0000000000000000    0.0000000000000000   30.3168754577999984
   Ti    O
   10   19
Direct          Plane group = pmm                               N   SiteLabel  Layer  Linking     FreeDir
  0.0000000000000000  0.0000000000000000  0.1418299970000000    1      Ti_def      7     none        bulk
  0.4999999999999999  0.0000000000000000  0.2489899840000000    2      Ti_def      5     none      locked
  0.0000000000000000  0.0000000000000000  0.3565271500000003    3      Ti_def      3     none      locked
  0.4999999999999999  0.0000000000000000  0.4705573320000002    4      Ti_def      1     none      locked
  0.0000000000000000  0.0000000000000000  0.5704981680000000    5     Ti_surf      1     none      locked
  0.4999999999999999  0.5000000000000000  0.1418299970000000    6      Ti_def      7     none        bulk
  0.0000000000000000  0.5000000000000000  0.2489899840000000    7      Ti_def      5     none      locked
  0.4999999999999999  0.5000000000000000  0.3590885400000000    8      Ti_def      3     none      locked
  0.0000000000000000  0.5000000000000000  0.4643293020000000    9      Ti_def      1     none      locked
  0.4999999999999999  0.5000000000000000  0.5814051030000000   10     Ti_surf      1     none      locked
  0.0000000000000000  0.0000000000000000  0.2071499820000001   11       O_def      6     none        bulk
  0.4999999999999999  0.0000000000000000  0.3159602880000001   12       O_def      4     none      locked
  0.0000000000000000  0.0000000000000000  0.4235483410000000   13       O_def      2     none      locked
  0.4999999999999999  0.0000000000000000  0.5336272120000000   14       O_def      1     none      locked
  0.4999999999999999  0.0000000000000000  0.1836699990000000   15       O_def      6     none        bulk
  0.0000000000000000  0.0000000000000000  0.2908199730000000   16       O_def      4     none      locked
  0.4999999999999999  0.0000000000000000  0.4014337960000000   17       O_def      2     none      locked
  0.0000000000000000  0.0000000000000000  0.5088908080000000   18       O_def      1     none      locked
  0.4999999999999999  0.0000000000000000  0.6187549230000001   19    O_bridge      1     none      locked
  0.8048000040000000  0.5000000000000000  0.1418299970000000   20       O_def      7        1        bulk
  0.3048000634999999  0.5000000000000000  0.2489899840000000   21       O_def      5        2       [1 0]
  0.8060929474999999  0.5000000000000000  0.3576597720000000   22       O_def      3        3       [1 0]
  0.3007896540000001  0.5000000000000002  0.4674239010000002   23       O_def      1        4       [1 0]
  0.8124848599999999  0.5000000000000000  0.5808261634999999   24      O_surf      1        5       [1 0]
  0.1951999960000000  0.5000000000000002  0.1418299970000000   25       O_def      7        1        bulk
  0.6951999365000000  0.5000000000000000  0.2489899840000000   26       O_def      5        2       [1 0]
  0.1939070525000000  0.5000000000000002  0.3576597720000000   27       O_def      3        3       [1 0]
  0.6992103459999998  0.5000000000000000  0.4674239010000002   28       O_def      1        4       [1 0]
  0.1875151400000001  0.5000000000000002  0.5808261634999999   29      O_surf      1        5       [1 0]
