MgO - COD 9006456 - c x 4
1.0
        4.2110000000         0.0000000000         0.0000000000
        0.0000000000         4.2110000000         0.0000000000
        0.0000000000         0.0000000000        16.8440000000
   Mg/testtesttest    O/
   14   14
Direct
     0.000000000         0.000000000         0.000010000
     0.000000000         0.500000000         0.125010000
     0.500000000         0.000000000         0.125010000
     0.500000000         0.500000000         0.000010000
     0.000000000         0.000000000         0.250010000
     0.000000000         0.000000000         0.750010000
     0.000000000         0.500000000         0.375010000
     0.500000000         0.000000000         0.375010000
     0.500000000         0.500000000         0.250010000
     0.500000000         0.500000000         0.750010000
     0.000000000         0.000000000         0.500010000
     0.000000000         0.500000000         0.625010000
     0.500000000         0.000000000         0.625010000
     0.500000000         0.500000000         0.500010000
     0.500000000         0.500000000         0.125010000
     0.500000000         0.000000000         0.250010000
     0.500000000         0.000000000         0.000010000
     0.000000000         0.500000000         0.250010000
     0.000000000         0.500000000         0.000010000
     0.000000000         0.000000000         0.125010000
     0.500000000         0.500000000         0.375010000
     0.500000000         0.500000000         0.625010000
     0.500000000         0.000000000         0.500010000
     0.500000000         0.000000000         0.750010000
     0.000000000         0.500000000         0.500010000
     0.000000000         0.500000000         0.750010000
     0.000000000         0.000000000         0.375010000
     0.000000000         0.000000000         0.625010000
