Ag(100) 1x1                                     
  2.8800
    1.0000000000000000    0.0000000000000000    0.0000000000000000
    0.0000000000000000    1.0000000000000000    0.0000000000000000
    0.0000000000000000    0.0000000000000000    7.0710678100000000
   Ag  
    6  
Direct
  0.0000  0.0000  0.8000 
  0.5000  0.5000  0.7000 
  0.0000  0.0000  0.6000 
  0.5000  0.5000  0.5000 
  0.0000  0.0000  0.4000 
  0.5000  0.5000  0.3000 
