The Ag(100) structure, with Bi instead to test phase shifts
  2.880000
    1.0000000000000000    0.0000000000000000    0.0000000000000000
    0.0000000000000000    1.0000000000000000    0.0000000000000000
    0.0000000000000000    0.0000000000000000    7.0710678099999997
   Bi
    6
Direct
  0.0000000000000000  0.0000000000000000  0.8000000000000000          comment 2
  0.4999999999999999  0.4999999999999999  0.7000000000000000
  0.0000000000000000  0.0000000000000000  0.6000000000000000
  0.4999999999999999  0.4999999999999999  0.5000000000000000
  0.0000000000000000  0.0000000000000000  0.4000000000000000
  0.4999999999999999  0.4999999999999999  0.2999999999999999
