Hematite                                
  1.000000
    5.0355000496000004    0.0000000000000000    0.0000000000000000
    0.0000000000000000    5.4267997742000000    0.0000000000000000
    2.5177499999999999    2.3361999999999998    3.6822900000000001
    O   Fe
    6    4
Direct          Plane group = pg[0 1]                       
  0.3060694503719897  0.2500006085132011  0.1939314018870876
  0.4999995193719896  0.7500006085132012  0.1939314018870876
  0.8060679513228510  0.7500002905074472  0.5000005100001651
  0.6939319133228512  0.2500002905074472  0.5000005100001651
  0.9999998607738726  0.2500004785011082  0.8060685981129124
  0.1939319187738725  0.7500004785011082  0.8060685981129124
  0.6043389672418775  0.0630191775144814  0.2913224381066196
  0.1043389672418777  0.5630191775144814  0.2913224381066196
  0.3956599074035180  0.4369814855015533  0.7086805618943433
  0.8956599074035181  0.9369814855015537  0.7086805618943433
