Fe2 O3
1.0
        5.0345997810         0.0000000000         0.0000000000
       -0.0000028904         5.4265761375         0.0000000000
        0.0000295705         0.0000000000        25.0000000000
   Fe    O
   24   36
Cartesian
     5.034592845         1.301510562         2.616623013
     5.034602701         0.545867682         9.980300071
     5.034612558        -0.209775315        17.343978281
     2.517294487         3.636977236         6.298464258
     2.517304344         2.881334306        13.662141809
     2.517314200         2.125691443        21.025818702
     5.034591178         3.369429567         4.747087951
     5.034601034         2.613786704        12.110764844
     5.034610891         1.858143707        19.474443054
     2.517284953         1.033963005         1.065252714
     2.517294810         0.278320066         8.428930347
     2.517304667        -0.477322864        15.792607899
     5.034586849         3.747251201         1.065247529
     5.034596706         2.991608271         8.428925081
     5.034606563         2.235965341        15.792602632
     2.517293182         0.656141910         4.747086305
     2.517303039        -0.099500987        12.110763527
     2.517312896        -0.855143849        19.474440420
     5.034593272         0.923688600         6.298468208
     5.034603129         0.168045670        13.662145759
     5.034612985        -0.587597193        21.025822653
     2.517289558         4.014798650         2.616625976
     2.517299415         3.259155737         9.980303363
     2.517309272         2.503512807        17.343980914
     1.538560845         2.524380451         1.840939468
     1.538570702         1.768737537         9.204616855
     1.538580559         1.013094675        16.568293748
     4.055867109        -0.566729956         5.522777092
     4.055876966        -1.322372886        12.886454643
     4.055886823        -2.078015749        20.250131536
     3.496020095         2.146559239         5.522775775
     3.496029952         1.390916309        12.886453327
     3.496039809         0.635273446        20.250130220
     0.978718447        -0.188907970         1.840934036
     0.978728303        -0.944550901         9.204611588
     0.978738160        -1.700193763        16.568288481
     4.265299895         3.238100612         2.966111129
     4.265309752         2.482457682        10.329788680
     4.265319609         1.726814819        17.693465574
     1.748006528         0.146990708         6.647949575
     1.748016385        -0.608652155        14.011626469
     1.748026242        -1.364295153        21.375304679
     3.286573962         4.523950783         0.715766244
     3.286583819         3.768307861         8.079443713
     3.286593675         3.012664998        15.443120606
     0.769280370         1.432841096         4.397604937
     0.769290227         0.677198131        11.761282818
     0.769300083        -0.078444731        19.124959711
     1.748003459         4.146129090         4.397607241
     1.748013316         3.390486227        11.761284135
     1.748023173         2.634843229        19.124962345
     4.265297766         1.810661816         0.715771840
     4.265307623         1.055018928         8.079448980
     4.265317480         0.299376066        15.443125873
     0.769280323         2.860279060         6.647947600
     0.769290180         2.104636130        14.011625152
     0.769300037         1.348993267        21.375302045
     3.286578981         0.524812794         2.966105533
     3.286588838        -0.230830102        10.329782755
     3.286598695        -0.986473032        17.693460307
