Hematite                                
  1.000000
    5.0355000496000004    0.0000000000000000    0.0000000000000000
    0.0000000000000000    5.4267997742000000    0.0000000000000000
    0.0000000000000000   -4.1491560740065836   40.5052018039000004
    O   Fe
   42   28
Direct
  0.4030349655000001  0.2427349224759894  0.8627880592727024
  0.5969650344999999  0.7427349224759894  0.8627880592727024
  0.0560680189999999  0.8957689334760062  0.8906125155380948
  0.9439319810000002  0.3957689334760062  0.8906125155380948
  0.4030339710000000  0.5488029404760084  0.9184368790762107
  0.5969660289999998  0.0488029404760084  0.9184368790762107
  0.9030339974999998  0.7427348824759861  0.9536971569219475
  0.0969660025000004  0.2427348824759861  0.9536971569219475
  0.5560679924999999  0.3957689374759923  0.9815216054600455
  0.4439320075000000  0.8957689374759639  0.9815216054600455
  0.9030350155000002  0.0488034474760184  0.0093460599072728
  0.0969649844999998  0.5488034474760184  0.0093460599072728
  0.4006704128924042  0.2489270719045180  0.0454922020333868
  0.5993295871075958  0.7489270719045464  0.0454922020333868
  0.0537369028924040  0.9072206566766567  0.0739119866070723
  0.9462630971075959  0.4072206566766567  0.0739119866070723
  0.4233091474145648  0.5601761450054710  0.1006529744590239
  0.5766908525854351  0.0601761450054710  0.1006529744590239
  0.1077021830200469  0.2487261565036647  0.1370666043474955
  0.8922978169799531  0.7487261565036647  0.1370666043474955
  0.5627695593048551  0.3993033640381611  0.1651638147845063
  0.4372304406951449  0.8993033640381327  0.1651638147845063
  0.1019271632151919  0.5526630103546779  0.1917598175776902
  0.8980728367848081  0.0526630103546495  0.1917598175776902
  0.5970888350358651  0.7514692048897018  0.2277531928538963
  0.4029111649641349  0.2514692048897302  0.2277531928538963
  0.0530153973924042  0.9113100045814804  0.2554453473199771
  0.9469846026075958  0.4113100045814804  0.2554453473199771
  0.4030544183924042  0.5639349062601013  0.2834369652811404
  0.5969455816075958  0.0639349062601013  0.2834369652811404
  0.1002769628945184  0.2538840273598169  0.3168511025821488
  0.8997230371054815  0.7538840273598169  0.3168511025821488
  0.5635066144124510  0.4175590154660540  0.3490164509331635
  0.4364933855875490  0.9175590154660540  0.3490164509331635
  0.9181587428227878  0.0474602411698299  0.3734546371453291
  0.0818412571772122  0.5474602411698299  0.3734546371453291
  0.9030349704250324  0.7427356577700266  0.7718789948560527
  0.0969650394250322  0.2427356577700266  0.7718789948560527
  0.5560680239250322  0.3957696687700150  0.7997034511214736
  0.4439319859250325  0.8957696687700434  0.7997034511214736
  0.9030339759250323  0.0488036757700456  0.8275278146595895
  0.0969660339250322  0.5488036757700456  0.8275278146595895
  0.7500000000000000  0.1044489379759739  0.8716417872579996
  0.2500000000000001  0.6044489379760307  0.8716417872579996
  0.7500000000000000  0.6870900009760135  0.9095834238182192
  0.2500000000000001  0.1870900009760135  0.9095834238182192
  0.2500000000000001  0.6044484409760003  0.9625507976344920
  0.7500000000000000  0.1044484409760003  0.9625507976344920
  0.2500000000000001  0.1870893954759936  0.0004924132856274
  0.7500000000000000  0.6870893954759936  0.0004924132856274
  0.7496083119820675  0.1187625507998007  0.0534612411928777
  0.2503916880179325  0.6187625507998007  0.0534612411928777
  0.7547711552151917  0.7031561909500397  0.0920914069913863
  0.2452288447848084  0.2031561909500397  0.0920914069913863
  0.2461537183206734  0.6261130166328712  0.1449771116870693
  0.7538462816793265  0.1261130166328996  0.1449771116870693
  0.7524414070896633  0.6908296612789115  0.1831977946645509
  0.2475585929103367  0.1908296612789400  0.1831977946645509
  0.7465930658565388  0.1182484811855602  0.2361350993663223
  0.2534069341434612  0.6182484811855602  0.2361350993663223
  0.2524461266613943  0.1940813266502346  0.2740322405025495
  0.7475538733386058  0.6940813266502346  0.2740322405025495
  0.2622675824103367  0.6276971353385647  0.3285615693825150
  0.7377324175896633  0.1276971353385647  0.3285615693825150
  0.2192807576255289  0.2062741809978093  0.3626601690080236
  0.7807192423744711  0.7062741809978093  0.3626601690080236
  0.2500000049250323  0.6044496732700395  0.7807327228413499
  0.7500000049250324  0.1044496732700395  0.7807327228413499
  0.2500000049250323  0.1870907362700223  0.8186743594015695
  0.7500000049250324  0.6870907362700507  0.8186743594015695
