CoTe2_Au111_stack
  3.834130
    1.0000000000000000    0.0000000000000000    0.0000000000000000
   -0.5000000000000000    0.8660254037844386    0.0000000000000000
    0.0000000000000000    0.0000000000000000    6.1237500000000002
   Te   Co   Au
    2    1    2
Direct          Plane group = p3m1                              N   SiteLabel  Layer  Linking     FreeDir
  0.0000000000000000  0.0000000000000000  0.8317490832337385    1      Te_top      1     none      locked
  0.3333333333333335  0.6666666666666667  0.7158647265627290    2      Te_bot      1     none      locked
  0.6666666666666667  0.3333333333333334  0.7700528074836971    3      Co_def      1     none      locked
  0.0000000000000000  0.0000000000000000  0.6000000000000001    4      Au_def      2     none      locked
  0.6666666666666667  0.3333333333333334  0.5000000000000000    5      Au_def      3     none        bulk
