Hematite                                
  1.000000
    5.0355000496000004    0.0000000000000000    0.0000000000000000
    0.0000000000000000    5.4267997742000000    0.0000000000000000
    0.0000000000000000   -3.7719601772000000   36.8229118038999985
    O   Fe
   36   24
Direct          Plane group = pg[0 1]                           N   SiteLabel  Layer  Linking     FreeDir
  0.4030349655000001  0.3469659820000000  0.0193930969999999    1       O_def      6        1        bulk
  0.5969650344999999  0.8469659820000001  0.0193930969999999    2       O_def      6        1        bulk
  0.0560680189999999  0.9999999930000003  0.0499999980000001    3       O_def      6        2        bulk
  0.9439319810000002  0.4999999930000002  0.0499999980000001    4       O_def      6        2        bulk
  0.4030339710000000  0.6530340000000002  0.0806067969999999    5       O_def      6        3        bulk
  0.5969660290000000  0.1530340000000003  0.0806067969999999    6       O_def      6        3        bulk
  0.9030339974999998  0.8469659419999999  0.1193931015000000    7       O_def      5        4        free
  0.0969660025000004  0.3469659420000001  0.1193931015000000    8       O_def      5        4        free
  0.5560679924999999  0.4999999970000000  0.1499999940000000    9       O_def      5        5        free
  0.4439320075000000  0.9999999970000000  0.1499999940000000   10       O_def      5        5        free
  0.9030350155000002  0.1530345069999998  0.1806068930000000   11       O_def      5        6        free
  0.0969649844999998  0.6530345069999999  0.1806068930000000   12       O_def      5        6        free
  0.4006704128924042  0.3531581314285216  0.2203676481800264   13       O_def      4        7        free
  0.5993295871075958  0.8531581314285215  0.2203676481800264   14       O_def      4        7        free
  0.0537369028924040  0.0114517162006492  0.2516294103000438   15       O_def      4        8        free
  0.9462630971075959  0.5114517162006492  0.2516294103000438   16       O_def      4        8        free
  0.4233091474145648  0.6644072045294851  0.2810444960800117   17       O_def      4        9        free
  0.5766908525854351  0.1644072045294851  0.2810444960800117   18       O_def      4        9        free
  0.1077021830200469  0.3529572160276562  0.3210994877900424   19       O_def      3       10        free
  0.8922978169799531  0.8529572160276561  0.3210994877900424   20       O_def      3       10        free
  0.5627695593048551  0.5035344235621473  0.3520064183700540   21       O_def      3       11        free
  0.4372304406951449  0.0035344235621473  0.3520064183700540   22       O_def      3       11        free
  0.1019271632151919  0.6568940698786685  0.3812620205900132   23       O_def      3       12        free
  0.8980728367848081  0.1568940698786685  0.3812620205900132   24       O_def      3       12        free
  0.5970888350358651  0.8557002644137295  0.4208547322400351   25       O_def      2       13        free
  0.4029111649641349  0.3557002644137294  0.4208547322400351   26       O_def      2       13        free
  0.0530153973924042  0.0155410641054919  0.4513161012650385   27       O_def      2       14        free
  0.9469846026075958  0.5155410641054919  0.4513161012650385   28       O_def      2       14        free
  0.4030544183924042  0.6681659657840811  0.4821068801250177   29       O_def      2       15        free
  0.5969455816075958  0.1681659657840811  0.4821068801250177   30       O_def      2       15        free
  0.1002769628945184  0.3581150868838079  0.5188624300850125   31       O_def      1       16        free
  0.8997230371054815  0.8581150868838079  0.5188624300850125   32       O_def      1       16        free
  0.5635066144124510  0.5217900749900419  0.5542443122400351   33       O_def      1       17        free
  0.4364933855875490  0.0217900749900419  0.5542443122400351   34       O_def      1       17        free
  0.9181587428227878  0.1516913006938412  0.5811263162900424   35      O_surf      1       18        free
  0.0818412571772122  0.6516913006938412  0.5811263162900424   36      O_surf      1       18        free
  0.7500000000000000  0.2086799974999999  0.0291321975000000   37      Fe_def      6       19        bulk
  0.2500000000000001  0.7086799974999999  0.0291321975000000   38      Fe_def      6       19        bulk
  0.7500000000000000  0.7913210605000014  0.0708679965000000   39      Fe_def      6       20        bulk
  0.2500000000000001  0.2913210605000015  0.0708679965000000   40      Fe_def      6       20        bulk
  0.2500000000000001  0.7086795005000002  0.1291321059999999   41      Fe_def      5       21        free
  0.7500000000000000  0.2086795005000001  0.1291321059999999   42      Fe_def      5       21        free
  0.2500000000000001  0.2913204549999999  0.1708678820000000   43      Fe_def      5       22        free
  0.7500000000000000  0.7913204549999999  0.1708678820000000   44      Fe_def      5       22        free
  0.7496083119820675  0.2229936103238097  0.2291335909999999   45      Fe_def      4       23        free
  0.2503916880179325  0.7229936103238097  0.2291335909999999   46      Fe_def      4       23        free
  0.7547711552151917  0.8073872504740349  0.2716267721400205   47      Fe_def      4       24        free
  0.2452288447848084  0.3073872504740349  0.2716267721400205   48      Fe_def      4       24        free
  0.2461537183206734  0.7303440761568875  0.3298010456100160   49      Fe_def      3       25        free
  0.7538462816793265  0.2303440761568873  0.3298010456100160   50      Fe_def      3       25        free
  0.7524414070896633  0.7950607208029266  0.3718437956600235   51      Fe_def      3       26        free
  0.2475585929103367  0.2950607208029266  0.3718437956600235   52      Fe_def      3       26        free
  0.7465930658565388  0.2224795407095775  0.4300748291350195   53      Fe_def      2       27        free
  0.2534069341434612  0.7224795407095777  0.4300748291350195   54      Fe_def      2       27        free
  0.2524461266613943  0.2983123861742093  0.4717616831700248   55      Fe_def      2       28        free
  0.7475538733386058  0.7983123861742093  0.4717616831700248   56      Fe_def      2       28        free
  0.2622675824103367  0.7319281948625636  0.5317439431900276   57      Fe_def      1       29        free
  0.7377324175896633  0.2319281948625636  0.5317439431900276   58      Fe_def      1       29        free
  0.2192807576255289  0.3105052405217936  0.5692524016850270   59     Fe_surf      1       30        free
  0.7807192423744711  0.8105052405217936  0.5692524016850270   60     Fe_surf      1       30        free
