Ag(100) 1x1 clean                                     
  2.880000
    1.0000000000000000    0.0000000000000000    0.0000000000000000
    0.0000000000000000    1.0000000000000000    0.0000000000000000
    0.0000000000000000    0.0000000000000000    7.0710678099999997
   Ax   Ag
    1    5
Direct
  0.0000000000000000  0.0000000000000000  0.8000000000000000
  0.4999999999999999  0.4999999999999999  0.7000000000000000
  0.0000000000000000  0.0000000000000000  0.6000000000000000
  0.4999999999999999  0.4999999999999999  0.5000000000000000
  0.0000000000000000  0.0000000000000000  0.4000000000000000
  0.4999999999999999  0.4999999999999999  0.2999999999999999
